SLAB
PRIMVEC
 11.87140608258133 0.00000000000000 0.00000000000000
 0.00000000000000 11.87140608258133 0.00000000000000
 0.00000000000000 0.00000000000000 27.87140608258133
PRIMCOORD
 48 1
 55     0.00000000000000     0.00000000000000     8.00000000000000
 82     2.96785152064533     2.96785152064533    10.96785152064533
 35     0.00000000000000     2.96785152064533    10.96785152064533
 35     2.96785152064533     0.00000000000000    10.96785152064533
 35     2.96785152064533     2.96785152064533     8.00000000000000
 55     0.00000000000000     0.00000000000000    13.93570304129067
 82     2.96785152064533     2.96785152064533    16.90355456193600
 35     0.00000000000000     2.96785152064533    16.90355456193600
 35     2.96785152064533     0.00000000000000    16.90355456193600
 35     2.96785152064533     2.96785152064533    13.93570304129067
 55     0.00000000000000     0.00000000000000    19.87140608258133
 35     2.96785152064533     2.96785152064533    19.87140608258133
 55     0.00000000000000     5.93570304129067     8.00000000000000
 82     2.96785152064533     8.90355456193600    10.96785152064533
 35     0.00000000000000     8.90355456193600    10.96785152064533
 35     2.96785152064533     5.93570304129067    10.96785152064533
 35     2.96785152064533     8.90355456193600     8.00000000000000
 55     0.00000000000000     5.93570304129067    13.93570304129067
 82     2.96785152064533     8.90355456193600    16.90355456193600
 35     0.00000000000000     8.90355456193600    16.90355456193600
 35     2.96785152064533     5.93570304129067    16.90355456193600
 35     2.96785152064533     8.90355456193600    13.93570304129067
 55     0.00000000000000     5.93570304129067    19.87140608258133
 35     2.96785152064533     8.90355456193600    19.87140608258133
 55     5.93570304129067     0.00000000000000     8.00000000000000
 82     8.90355456193600     2.96785152064533    10.96785152064533
 35     5.93570304129067     2.96785152064533    10.96785152064533
 35     8.90355456193600     0.00000000000000    10.96785152064533
 35     8.90355456193600     2.96785152064533     8.00000000000000
 55     5.93570304129067     0.00000000000000    13.93570304129067
 82     8.90355456193600     2.96785152064533    16.90355456193600
 35     5.93570304129067     2.96785152064533    16.90355456193600
 35     8.90355456193600     0.00000000000000    16.90355456193600
 35     8.90355456193600     2.96785152064533    13.93570304129067
 55     5.93570304129067     0.00000000000000    19.87140608258133
 35     8.90355456193600     2.96785152064533    19.87140608258133
 55     5.93570304129067     5.93570304129067     8.00000000000000
 82     8.90355456193600     8.90355456193600    10.96785152064533
 35     5.93570304129067     8.90355456193600    10.96785152064533
 35     8.90355456193600     5.93570304129067    10.96785152064533
 35     8.90355456193600     8.90355456193600     8.00000000000000
 55     5.93570304129067     5.93570304129067    13.93570304129067
 82     8.90355456193600     8.90355456193600    16.90355456193600
 35     5.93570304129067     8.90355456193600    16.90355456193600
 35     8.90355456193600     5.93570304129067    16.90355456193600
 35     8.90355456193600     8.90355456193600    13.93570304129067
 55     5.93570304129067     5.93570304129067    19.87140608258133
 35     8.90355456193600     8.90355456193600    19.87140608258133
