
     Program PWSCF v.6.7MaX starts on 25Jul2026 at 13:42:28 

     This program is part of the open-source Quantum ESPRESSO suite
     for quantum simulation of materials; please cite
         "P. Giannozzi et al., J. Phys.:Condens. Matter 21 395502 (2009);
         "P. Giannozzi et al., J. Phys.:Condens. Matter 29 465901 (2017);
          URL http://www.quantum-espresso.org", 
     in publications or presentations arising from this work. More details at
     http://www.quantum-espresso.org/quote

     Parallel version (MPI), running on     2 processors

     MPI processes distributed on     1 nodes
     R & G space division:  proc/nbgrp/npool/nimage =       2
     Reading input from bulk_kpoints664.in

     Current dimensions of program PWSCF are:
     Max number of different atomic species (ntypx) = 10
     Max number of k-points (npk) =  40000
     Max angular momentum in pseudopotentials (lmaxx) =  3
     Message from routine read_pp_mesh:
     mesh size missing, using the one in header
     Message from routine read_pp_mesh:
     mesh size missing, using the one in header
     Message from routine read_pp_mesh:
     mesh size missing, using the one in header

     Subspace diagonalization in iterative solution of the eigenvalue problem:
     a serial algorithm will be used

     Message from routine setup:
     using ibrav=0 with symmetry is DISCOURAGED, use correct ibrav instead

     Parallelization info
     --------------------
     sticks:   dense  smooth     PW     G-vecs:    dense   smooth      PW
     Min        2718    2718    733               217154   217154   30313
     Max        2719    2719    734               217157   217157   30316
     Sum        5437    5437   1467               434311   434311   60629



     bravais-lattice index     =            0
     lattice parameter (alat)  =      15.3088  a.u.
     unit-cell volume          =    5489.9762 (a.u.)^3
     number of atoms/cell      =           20
     number of atomic types    =            3
     number of electrons       =       328.00
     number of Kohn-Sham states=          164
     kinetic-energy cutoff     =      70.0000  Ry
     charge density cutoff     =     280.0000  Ry
     scf convergence threshold =      1.0E-08
     mixing beta               =       0.3000
     number of iterations used =            8  plain     mixing
     Exchange-correlation= PBE
                           (   1   4   3   4   0   0   0)

     celldm(1)=  15.308820  celldm(2)=   0.000000  celldm(3)=   0.000000
     celldm(4)=   0.000000  celldm(5)=   0.000000  celldm(6)=   0.000000

     crystal axes: (cart. coord. in units of alat)
               a(1) = (   1.000000   0.000000   0.000000 )  
               a(2) = (   0.000000   1.043546   0.000000 )  
               a(3) = (   0.000000   0.000000   1.466337 )  

     reciprocal axes: (cart. coord. in units 2 pi/alat)
               b(1) = (  1.000000  0.000000  0.000000 )  
               b(2) = (  0.000000  0.958271  0.000000 )  
               b(3) = (  0.000000  0.000000  0.681971 )  


     PseudoPot. # 1 for Cs read from file:
     /usr/share/espresso/pseudo/Cs.upf
     MD5 check sum: d01c53d012be9123745781bcb8b00a26
     Pseudo is Norm-conserving + core correction, Zval =  9.0
     Generated using ONCVPSP code by D. R. Hamann
     Using radial grid of 2414 points,  8 beta functions with: 
                l(1) =   0
                l(2) =   0
                l(3) =   1
                l(4) =   1
                l(5) =   2
                l(6) =   2
                l(7) =   3
                l(8) =   3

     PseudoPot. # 2 for Pb read from file:
     /usr/share/espresso/pseudo/Pb.upf
     MD5 check sum: ef32195dce39f3be2bd8d55c45026041
     Pseudo is Norm-conserving + core correction, Zval = 22.0
     Generated using ONCVPSP code by D. R. Hamann
     Using radial grid of 1692 points,  7 beta functions with: 
                l(1) =   0
                l(2) =   0
                l(3) =   1
                l(4) =   1
                l(5) =   2
                l(6) =   2
                l(7) =   3

     PseudoPot. # 3 for Br read from file:
     /usr/share/espresso/pseudo/Br.upf
     MD5 check sum: 89331df975851c81b2ee53e8f046c6dd
     Pseudo is Norm-conserving + core correction, Zval = 17.0
     Generated using ONCVPSP code by D. R. Hamann
     Using radial grid of 1098 points,  6 beta functions with: 
                l(1) =   0
                l(2) =   0
                l(3) =   1
                l(4) =   1
                l(5) =   2
                l(6) =   2

     atomic species   valence    mass     pseudopotential
        Cs             9.00   132.90545     Cs( 1.00)
        Pb            22.00   207.20000     Pb( 1.00)
        Br            17.00    79.90400     Br( 1.00)

      8 Sym. Ops., with inversion, found ( 6 have fractional translation)



   Cartesian axes

     site n.     atom                  positions (alat units)
         1           Cs  tau(   1) = (   0.5194521   0.4589896   0.3665843  )
         2           Cs  tau(   2) = (   0.0194521   0.0627833   1.0997528  )
         3           Cs  tau(   3) = (   0.9805479   0.9807625   0.3665843  )
         4           Cs  tau(   4) = (   0.4805479   0.5845563   1.0997528  )
         5           Pb  tau(   5) = (   0.5000000   0.0000000   0.7331685  )
         6           Pb  tau(   6) = (   0.0000000   0.5217729   0.0000000  )
         7           Pb  tau(   7) = (   0.0000000   0.5217729   0.7331685  )
         8           Pb  tau(   8) = (   0.5000000   0.0000000   0.0000000  )
         9           Br  tau(   9) = (   0.5596655   1.0370139   1.0997528  )
        10           Br  tau(  10) = (   0.0596655   0.5283050   0.3665843  )
        11           Br  tau(  11) = (   0.8027919   0.2097759   0.0464848  )
        12           Br  tau(  12) = (   0.1972081   0.8337700   1.4198523  )
        13           Br  tau(  13) = (   0.3027919   0.3119971   1.4198523  )
        14           Br  tau(  14) = (   0.6972081   0.7315488   0.0464848  )
        15           Br  tau(  15) = (   0.3027919   0.3119971   0.7796533  )
        16           Br  tau(  16) = (   0.6972081   0.7315488   0.6866838  )
        17           Br  tau(  17) = (   0.1972081   0.8337700   0.7796533  )
        18           Br  tau(  18) = (   0.8027919   0.2097759   0.6866838  )
        19           Br  tau(  19) = (   0.9403345   0.5152409   1.0997528  )
        20           Br  tau(  20) = (   0.4403345   0.0065320   0.3665843  )

     number of k points=    48
                       cart. coord. in units 2pi/alat
        k(    1) = (   0.0000000   0.0000000   0.0000000), wk =   0.0138889
        k(    2) = (   0.0000000   0.0000000   0.1704929), wk =   0.0277778
        k(    3) = (   0.0000000   0.0000000  -0.3409857), wk =   0.0138889
        k(    4) = (   0.0000000   0.1597119   0.0000000), wk =   0.0277778
        k(    5) = (   0.0000000   0.1597119   0.1704929), wk =   0.0555556
        k(    6) = (   0.0000000   0.1597119  -0.3409857), wk =   0.0277778
        k(    7) = (   0.0000000   0.3194237   0.0000000), wk =   0.0277778
        k(    8) = (   0.0000000   0.3194237   0.1704929), wk =   0.0555556
        k(    9) = (   0.0000000   0.3194237  -0.3409857), wk =   0.0277778
        k(   10) = (   0.0000000  -0.4791356   0.0000000), wk =   0.0138889
        k(   11) = (   0.0000000  -0.4791356   0.1704929), wk =   0.0277778
        k(   12) = (   0.0000000  -0.4791356  -0.3409857), wk =   0.0138889
        k(   13) = (   0.1666667   0.0000000   0.0000000), wk =   0.0277778
        k(   14) = (   0.1666667   0.0000000   0.1704929), wk =   0.0555556
        k(   15) = (   0.1666667   0.0000000  -0.3409857), wk =   0.0277778
        k(   16) = (   0.1666667   0.1597119   0.0000000), wk =   0.0555556
        k(   17) = (   0.1666667   0.1597119   0.1704929), wk =   0.1111111
        k(   18) = (   0.1666667   0.1597119  -0.3409857), wk =   0.0555556
        k(   19) = (   0.1666667   0.3194237   0.0000000), wk =   0.0555556
        k(   20) = (   0.1666667   0.3194237   0.1704929), wk =   0.1111111
        k(   21) = (   0.1666667   0.3194237  -0.3409857), wk =   0.0555556
        k(   22) = (   0.1666667  -0.4791356   0.0000000), wk =   0.0277778
        k(   23) = (   0.1666667  -0.4791356   0.1704929), wk =   0.0555556
        k(   24) = (   0.1666667  -0.4791356  -0.3409857), wk =   0.0277778
        k(   25) = (   0.3333333   0.0000000   0.0000000), wk =   0.0277778
        k(   26) = (   0.3333333   0.0000000   0.1704929), wk =   0.0555556
        k(   27) = (   0.3333333   0.0000000  -0.3409857), wk =   0.0277778
        k(   28) = (   0.3333333   0.1597119   0.0000000), wk =   0.0555556
        k(   29) = (   0.3333333   0.1597119   0.1704929), wk =   0.1111111
        k(   30) = (   0.3333333   0.1597119  -0.3409857), wk =   0.0555556
        k(   31) = (   0.3333333   0.3194237   0.0000000), wk =   0.0555556
        k(   32) = (   0.3333333   0.3194237   0.1704929), wk =   0.1111111
        k(   33) = (   0.3333333   0.3194237  -0.3409857), wk =   0.0555556
        k(   34) = (   0.3333333  -0.4791356   0.0000000), wk =   0.0277778
        k(   35) = (   0.3333333  -0.4791356   0.1704929), wk =   0.0555556
        k(   36) = (   0.3333333  -0.4791356  -0.3409857), wk =   0.0277778
        k(   37) = (  -0.5000000   0.0000000   0.0000000), wk =   0.0138889
        k(   38) = (  -0.5000000   0.0000000   0.1704929), wk =   0.0277778
        k(   39) = (  -0.5000000   0.0000000  -0.3409857), wk =   0.0138889
        k(   40) = (  -0.5000000   0.1597119   0.0000000), wk =   0.0277778
        k(   41) = (  -0.5000000   0.1597119   0.1704929), wk =   0.0555556
        k(   42) = (  -0.5000000   0.1597119  -0.3409857), wk =   0.0277778
        k(   43) = (  -0.5000000   0.3194237   0.0000000), wk =   0.0277778
        k(   44) = (  -0.5000000   0.3194237   0.1704929), wk =   0.0555556
        k(   45) = (  -0.5000000   0.3194237  -0.3409857), wk =   0.0277778
        k(   46) = (  -0.5000000  -0.4791356   0.0000000), wk =   0.0138889
        k(   47) = (  -0.5000000  -0.4791356   0.1704929), wk =   0.0277778
        k(   48) = (  -0.5000000  -0.4791356  -0.3409857), wk =   0.0138889

     Dense  grid:   434311 G-vectors     FFT dimensions: (  90,  90, 120)

     Estimated max dynamical RAM per process >       3.84 GB

     Estimated total dynamical RAM >       7.69 GB

     Initial potential from superposition of free atoms

     starting charge  327.83857, renormalised to  328.00000
     Starting wfcs are  180 randomized atomic wfcs

     total cpu time spent up to now is      938.5 secs

     Self-consistent Calculation

     iteration #  1     ecut=    70.00 Ry     beta= 0.30
     Davidson diagonalization with overlap
     ethr =  1.00E-02,  avg # of iterations =  2.0

     Threshold (ethr) on eigenvalues was too large:
     Diagonalizing with lowered threshold

     Davidson diagonalization with overlap
     ethr =  2.09E-04,  avg # of iterations =  3.0

     total cpu time spent up to now is     5986.3 secs

     total energy              =   -5116.22755325 Ry
     estimated scf accuracy    <       0.61079332 Ry

     iteration #  2     ecut=    70.00 Ry     beta= 0.30
     Davidson diagonalization with overlap
     ethr =  1.86E-04,  avg # of iterations =  2.0

     total cpu time spent up to now is     7513.0 secs

     total energy              =   -5116.25469477 Ry
     estimated scf accuracy    <       0.09964911 Ry

     iteration #  3     ecut=    70.00 Ry     beta= 0.30
     Davidson diagonalization with overlap
     ethr =  3.04E-05,  avg # of iterations =  3.4

     total cpu time spent up to now is    10235.3 secs

     total energy              =   -5116.27557274 Ry
     estimated scf accuracy    <       0.01173883 Ry

     iteration #  4     ecut=    70.00 Ry     beta= 0.30
     Davidson diagonalization with overlap
     ethr =  3.58E-06,  avg # of iterations =  2.1

     total cpu time spent up to now is    12316.6 secs

     total energy              =   -5116.27763534 Ry
     estimated scf accuracy    <       0.00131699 Ry

     iteration #  5     ecut=    70.00 Ry     beta= 0.30
     Davidson diagonalization with overlap
     ethr =  4.02E-07,  avg # of iterations =  4.3

     total cpu time spent up to now is    14315.9 secs

     total energy              =   -5116.27797253 Ry
     estimated scf accuracy    <       0.00022667 Ry

     iteration #  6     ecut=    70.00 Ry     beta= 0.30
     Davidson diagonalization with overlap
     ethr =  6.91E-08,  avg # of iterations =  4.2

     total cpu time spent up to now is    16439.4 secs

     total energy              =   -5116.27799608 Ry
     estimated scf accuracy    <       0.00014168 Ry

     iteration #  7     ecut=    70.00 Ry     beta= 0.30
     Davidson diagonalization with overlap
     ethr =  4.32E-08,  avg # of iterations =  2.9

     total cpu time spent up to now is    18375.1 secs

     total energy              =   -5116.27803944 Ry
     estimated scf accuracy    <       0.00000744 Ry

     iteration #  8     ecut=    70.00 Ry     beta= 0.30
     Davidson diagonalization with overlap
     ethr =  2.27E-09,  avg # of iterations =  3.1

     total cpu time spent up to now is    20181.3 secs

     total energy              =   -5116.27804022 Ry
     estimated scf accuracy    <       0.00000149 Ry

     iteration #  9     ecut=    70.00 Ry     beta= 0.30
     Davidson diagonalization with overlap
     ethr =  4.53E-10,  avg # of iterations =  4.0

     total cpu time spent up to now is    21708.9 secs

     total energy              =   -5116.27804092 Ry
     estimated scf accuracy    <       0.00000011 Ry

     iteration # 10     ecut=    70.00 Ry     beta= 0.30
     Davidson diagonalization with overlap
     ethr =  3.35E-11,  avg # of iterations =  4.8

     total cpu time spent up to now is    23034.8 secs

     total energy              =   -5116.27804095 Ry
     estimated scf accuracy    <       0.00000004 Ry

     iteration # 11     ecut=    70.00 Ry     beta= 0.30
     Davidson diagonalization with overlap
     ethr =  1.21E-11,  avg # of iterations =  3.0

     total cpu time spent up to now is    24371.1 secs

     End of self-consistent calculation

          k = 0.0000 0.0000 0.0000 ( 54325 PWs)   bands (ev):

  -134.7656-134.7656-134.7655-134.7654 -76.4591 -76.4591 -76.4591 -76.4591
   -76.4568 -76.4568 -76.4568 -76.4568 -76.4526 -76.4526 -76.4526 -76.4526
   -55.3429 -55.3429 -55.3429 -55.3428 -55.3284 -55.3283 -55.3283 -55.3283
   -55.3283 -55.3282 -55.3282 -55.3282 -55.3070 -55.3070 -55.3069 -55.3069
   -55.2975 -55.2975 -55.2974 -55.2974 -55.2910 -55.2909 -55.2909 -55.2909
   -55.2909 -55.2909 -55.2909 -55.2908 -55.2893 -55.2892 -55.2892 -55.2892
   -55.2892 -55.2891 -55.2891 -55.2891 -55.1893 -55.1893 -55.1893 -55.1893
   -55.1890 -55.1889 -55.1889 -55.1889 -55.1828 -55.1828 -55.1828 -55.1828
   -55.1827 -55.1827 -55.1827 -55.1827 -55.1824 -55.1824 -55.1823 -55.1823
   -55.1822 -55.1822 -55.1822 -55.1822 -16.0351 -16.0338 -16.0319 -16.0310
   -11.9344 -11.9308 -11.9307 -11.9141 -11.8924 -11.8687 -11.8650 -11.8650
   -11.8344 -11.8339 -11.8336 -11.8330 -11.8329 -11.8326 -11.8319 -11.8315
   -11.8264 -11.8260 -11.8252 -11.8249  -9.5761  -9.4159  -9.2778  -9.2735
    -9.2716  -9.2638  -9.2520  -9.2461  -9.2328  -9.0393  -9.0329  -9.0311
    -3.7089  -3.2477  -2.9101  -2.9000  -2.8949  -2.8883  -2.8744  -2.8736
    -2.8700  -2.8624  -2.8559  -2.8458  -2.8432  -2.8281  -2.7594  -2.1788
     0.9867   1.0091   1.0242   1.1065   1.1230   1.1941   2.1293   2.3299
     2.3791   2.3976   2.4059   2.5141   2.6315   2.7151   2.7351   2.7446
     2.7964   2.8161   2.8443   2.8472   2.8949   2.9000   2.9087   2.9218
     2.9390   3.0560   3.1042   3.1165   3.1645   3.1734   3.2406   3.2753
     3.4105   3.5617   4.0105   4.5800

          k = 0.0000 0.0000 0.1705 ( 54294 PWs)   bands (ev):

  -134.7656-134.7655-134.7655-134.7654 -76.4591 -76.4591 -76.4591 -76.4591
   -76.4568 -76.4568 -76.4568 -76.4568 -76.4526 -76.4526 -76.4526 -76.4525
   -55.3429 -55.3429 -55.3429 -55.3428 -55.3283 -55.3283 -55.3283 -55.3283
   -55.3283 -55.3283 -55.3282 -55.3282 -55.3070 -55.3070 -55.3069 -55.3069
   -55.2975 -55.2975 -55.2975 -55.2974 -55.2910 -55.2909 -55.2909 -55.2909
   -55.2909 -55.2909 -55.2909 -55.2908 -55.2893 -55.2892 -55.2892 -55.2892
   -55.2892 -55.2891 -55.2891 -55.2891 -55.1893 -55.1893 -55.1893 -55.1893
   -55.1889 -55.1889 -55.1889 -55.1889 -55.1828 -55.1828 -55.1828 -55.1828
   -55.1827 -55.1827 -55.1827 -55.1827 -55.1823 -55.1823 -55.1823 -55.1823
   -55.1822 -55.1822 -55.1822 -55.1822 -16.0349 -16.0340 -16.0318 -16.0312
   -11.9308 -11.9307 -11.9284 -11.9076 -11.8986 -11.8755 -11.8650 -11.8650
   -11.8343 -11.8338 -11.8337 -11.8331 -11.8329 -11.8326 -11.8318 -11.8316
   -11.8263 -11.8260 -11.8252 -11.8249  -9.5628  -9.4621  -9.2712  -9.2667
    -9.2650  -9.2516  -9.2470  -9.2385  -9.2196  -9.0639  -9.0326  -9.0314
    -3.6492  -3.3234  -2.9074  -2.8984  -2.8972  -2.8878  -2.8725  -2.8698
    -2.8667  -2.8603  -2.8598  -2.8517  -2.8486  -2.8316  -2.6921  -2.2874
     1.0205   1.0377   1.0729   1.1077   1.2437   1.4057   2.1625   2.2158
     2.3327   2.4182   2.4188   2.4715   2.5285   2.5657   2.7246   2.7497
     2.7550   2.8655   2.8657   2.8687   2.8755   2.9110   2.9402   2.9441
     2.9820   3.0597   3.0676   3.0939   3.1099   3.1550   3.2206   3.2374
     3.3989   3.4501   4.0370   4.3677

          k = 0.0000 0.0000-0.3410 ( 54388 PWs)   bands (ev):

  -134.7657-134.7657-134.7655-134.7655 -76.4591 -76.4591 -76.4591 -76.4591
   -76.4568 -76.4568 -76.4568 -76.4568 -76.4526 -76.4526 -76.4526 -76.4526
   -55.3429 -55.3429 -55.3429 -55.3429 -55.3284 -55.3284 -55.3283 -55.3283
   -55.3283 -55.3283 -55.3283 -55.3283 -55.3070 -55.3070 -55.3070 -55.3070
   -55.2975 -55.2975 -55.2975 -55.2975 -55.2910 -55.2910 -55.2909 -55.2909
   -55.2909 -55.2909 -55.2909 -55.2909 -55.2893 -55.2893 -55.2892 -55.2892
   -55.2892 -55.2892 -55.2892 -55.2892 -55.1893 -55.1893 -55.1893 -55.1893
   -55.1890 -55.1890 -55.1889 -55.1889 -55.1828 -55.1828 -55.1828 -55.1828
   -55.1828 -55.1828 -55.1828 -55.1828 -55.1823 -55.1823 -55.1823 -55.1823
   -55.1823 -55.1823 -55.1823 -55.1823 -16.0344 -16.0344 -16.0315 -16.0315
   -11.9307 -11.9307 -11.9136 -11.9136 -11.8916 -11.8916 -11.8650 -11.8650
   -11.8340 -11.8340 -11.8335 -11.8335 -11.8328 -11.8328 -11.8317 -11.8317
   -11.8262 -11.8262 -11.8250 -11.8250  -9.5233  -9.5233  -9.2681  -9.2681
    -9.2525  -9.2525  -9.2492  -9.2492  -9.1308  -9.1308  -9.0320  -9.0320
    -3.4947  -3.4947  -2.9018  -2.9018  -2.8921  -2.8921  -2.8685  -2.8685
    -2.8616  -2.8616  -2.8573  -2.8573  -2.8471  -2.8471  -2.5089  -2.5089
     1.0487   1.0487   1.0717   1.0717   1.7766   1.7766   1.9294   1.9294
     2.2473   2.2473   2.4553   2.4553   2.4801   2.4801   2.7443   2.7443
     2.7987   2.7987   2.8752   2.8752   2.9072   2.9072   2.9433   2.9433
     3.0391   3.0391   3.0717   3.0717   3.1437   3.1437   3.1574   3.1574
     3.3922   3.3922   4.1370   4.1370

          k = 0.0000 0.1597 0.0000 ( 54313 PWs)   bands (ev):

  -134.7656-134.7655-134.7655-134.7655 -76.4591 -76.4591 -76.4591 -76.4591
   -76.4568 -76.4568 -76.4568 -76.4568 -76.4526 -76.4526 -76.4526 -76.4525
   -55.3429 -55.3429 -55.3428 -55.3428 -55.3283 -55.3283 -55.3283 -55.3283
   -55.3283 -55.3282 -55.3282 -55.3282 -55.3070 -55.3070 -55.3069 -55.3069
   -55.2975 -55.2975 -55.2974 -55.2974 -55.2909 -55.2909 -55.2909 -55.2909
   -55.2909 -55.2909 -55.2909 -55.2908 -55.2893 -55.2892 -55.2892 -55.2892
   -55.2892 -55.2892 -55.2891 -55.2891 -55.1893 -55.1893 -55.1893 -55.1893
   -55.1890 -55.1889 -55.1889 -55.1889 -55.1828 -55.1828 -55.1828 -55.1828
   -55.1828 -55.1828 -55.1827 -55.1827 -55.1823 -55.1823 -55.1823 -55.1823
   -55.1822 -55.1822 -55.1822 -55.1822 -16.0349 -16.0336 -16.0321 -16.0312
   -11.9330 -11.9266 -11.9265 -11.9154 -11.8907 -11.8703 -11.8696 -11.8696
   -11.8344 -11.8339 -11.8335 -11.8330 -11.8329 -11.8325 -11.8319 -11.8316
   -11.8263 -11.8259 -11.8253 -11.8250  -9.5644  -9.4064  -9.3318  -9.2777
    -9.2748  -9.2734  -9.2374  -9.2317  -9.1812  -9.0478  -9.0456  -9.0441
    -3.6571  -3.1956  -2.9110  -2.9028  -2.8958  -2.8917  -2.8861  -2.8738
    -2.8683  -2.8606  -2.8530  -2.8449  -2.8430  -2.8293  -2.8103  -2.2751
     1.0038   1.0968   1.1548   1.1741   1.2009   1.2217   2.1571   2.3109
     2.3414   2.3854   2.3960   2.4110   2.5421   2.5525   2.6772   2.7491
     2.7974   2.7994   2.8526   2.9018   2.9025   2.9177   2.9246   2.9268
     2.9490   3.0532   3.0599   3.0865   3.1591   3.1599   3.2383   3.2676
     3.4214   3.5884   3.8364   4.3921

          k = 0.0000 0.1597 0.1705 ( 54322 PWs)   bands (ev):

  -134.7656-134.7656-134.7655-134.7654 -76.4591 -76.4591 -76.4591 -76.4591
   -76.4568 -76.4568 -76.4568 -76.4568 -76.4526 -76.4526 -76.4526 -76.4526
   -55.3429 -55.3429 -55.3429 -55.3428 -55.3283 -55.3283 -55.3283 -55.3283
   -55.3283 -55.3282 -55.3282 -55.3282 -55.3070 -55.3070 -55.3070 -55.3069
   -55.2975 -55.2975 -55.2975 -55.2975 -55.2910 -55.2909 -55.2909 -55.2909
   -55.2909 -55.2909 -55.2909 -55.2909 -55.2892 -55.2892 -55.2892 -55.2892
   -55.2892 -55.2892 -55.2891 -55.2891 -55.1893 -55.1893 -55.1893 -55.1893
   -55.1889 -55.1889 -55.1889 -55.1889 -55.1828 -55.1828 -55.1828 -55.1828
   -55.1828 -55.1827 -55.1827 -55.1827 -55.1823 -55.1823 -55.1823 -55.1823
   -55.1822 -55.1822 -55.1822 -55.1822 -16.0347 -16.0338 -16.0320 -16.0314
   -11.9269 -11.9266 -11.9265 -11.9089 -11.8970 -11.8770 -11.8696 -11.8696
   -11.8343 -11.8338 -11.8337 -11.8332 -11.8328 -11.8326 -11.8319 -11.8316
   -11.8263 -11.8260 -11.8253 -11.8250  -9.5514  -9.4525  -9.3282  -9.2994
    -9.2435  -9.2374  -9.2329  -9.2193  -9.1897  -9.0679  -9.0474  -9.0459
    -3.5974  -3.2713  -2.9084  -2.8967  -2.8948  -2.8863  -2.8785  -2.8701
    -2.8691  -2.8599  -2.8574  -2.8504  -2.8480  -2.8340  -2.7576  -2.3783
     1.1109   1.1227   1.1838   1.1977   1.2890   1.3852   2.1839   2.2146
     2.3128   2.3867   2.3945   2.4134   2.4619   2.5343   2.5641   2.7076
     2.7188   2.8526   2.8578   2.8754   2.9029   2.9313   2.9452   2.9462
     3.0025   3.0123   3.0718   3.1051   3.1121   3.1500   3.2165   3.2371
     3.4080   3.4673   3.8595   4.1822

          k = 0.0000 0.1597-0.3410 ( 54324 PWs)   bands (ev):

  -134.7656-134.7656-134.7655-134.7655 -76.4591 -76.4591 -76.4591 -76.4591
   -76.4568 -76.4568 -76.4568 -76.4568 -76.4526 -76.4526 -76.4526 -76.4526
   -55.3429 -55.3429 -55.3429 -55.3429 -55.3283 -55.3283 -55.3283 -55.3283
   -55.3283 -55.3283 -55.3282 -55.3282 -55.3070 -55.3070 -55.3070 -55.3070
   -55.2975 -55.2975 -55.2975 -55.2975 -55.2909 -55.2909 -55.2909 -55.2909
   -55.2909 -55.2909 -55.2909 -55.2909 -55.2892 -55.2892 -55.2892 -55.2892
   -55.2891 -55.2891 -55.2891 -55.2891 -55.1893 -55.1893 -55.1893 -55.1893
   -55.1889 -55.1889 -55.1889 -55.1889 -55.1828 -55.1828 -55.1828 -55.1828
   -55.1827 -55.1827 -55.1827 -55.1827 -55.1823 -55.1823 -55.1823 -55.1823
   -55.1822 -55.1822 -55.1822 -55.1822 -16.0342 -16.0342 -16.0317 -16.0317
   -11.9265 -11.9265 -11.9121 -11.9121 -11.8930 -11.8930 -11.8696 -11.8696
   -11.8340 -11.8340 -11.8335 -11.8335 -11.8327 -11.8327 -11.8318 -11.8318
   -11.8261 -11.8261 -11.8251 -11.8251  -9.5127  -9.5127  -9.3174  -9.3174
    -9.2348  -9.2348  -9.2128  -9.2128  -9.1331  -9.1331  -9.0467  -9.0467
    -3.4427  -3.4427  -2.9017  -2.9017  -2.8898  -2.8898  -2.8676  -2.8676
    -2.8591  -2.8591  -2.8562  -2.8562  -2.8515  -2.8515  -2.5893  -2.5893
     1.1463   1.1463   1.1690   1.1690   1.7965   1.7965   1.8993   1.8993
     2.2502   2.2502   2.4122   2.4122   2.4680   2.4680   2.6114   2.6114
     2.7692   2.7692   2.8490   2.8490   2.9209   2.9209   2.9367   2.9367
     3.0765   3.0765   3.0809   3.0809   3.1427   3.1427   3.1601   3.1601
     3.3994   3.3994   3.9527   3.9527

          k = 0.0000 0.3194 0.0000 ( 54318 PWs)   bands (ev):

  -134.7656-134.7655-134.7655-134.7655 -76.4591 -76.4591 -76.4591 -76.4591
   -76.4568 -76.4568 -76.4568 -76.4568 -76.4526 -76.4526 -76.4526 -76.4526
   -55.3429 -55.3429 -55.3428 -55.3428 -55.3283 -55.3283 -55.3283 -55.3283
   -55.3283 -55.3283 -55.3282 -55.3282 -55.3070 -55.3070 -55.3070 -55.3069
   -55.2975 -55.2975 -55.2975 -55.2975 -55.2910 -55.2909 -55.2909 -55.2909
   -55.2909 -55.2909 -55.2909 -55.2909 -55.2893 -55.2892 -55.2892 -55.2892
   -55.2892 -55.2892 -55.2891 -55.2891 -55.1893 -55.1893 -55.1893 -55.1893
   -55.1889 -55.1889 -55.1889 -55.1889 -55.1828 -55.1828 -55.1828 -55.1828
   -55.1828 -55.1827 -55.1827 -55.1827 -55.1823 -55.1823 -55.1822 -55.1822
   -55.1822 -55.1822 -55.1822 -55.1822 -16.0343 -16.0331 -16.0327 -16.0317
   -11.9292 -11.9191 -11.9149 -11.9149 -11.8863 -11.8821 -11.8820 -11.8745
   -11.8343 -11.8340 -11.8334 -11.8331 -11.8327 -11.8323 -11.8321 -11.8318
   -11.8261 -11.8257 -11.8255 -11.8252  -9.5301  -9.4074  -9.3802  -9.3042
    -9.2772  -9.2747  -9.1976  -9.1925  -9.1266  -9.0882  -9.0851  -9.0590
    -3.5108  -3.0650  -3.0529  -2.9122  -2.8858  -2.8855  -2.8791  -2.8711
    -2.8671  -2.8586  -2.8511  -2.8462  -2.8442  -2.8355  -2.8328  -2.5051
     1.0337   1.1286   1.3057   1.4215   1.5158   1.5416   2.0168   2.1534
     2.1703   2.2798   2.2863   2.3134   2.4513   2.5617   2.5932   2.6342
     2.8057   2.8286   2.8355   2.8539   2.8860   2.8874   2.9430   2.9490
     3.0166   3.0374   3.0402   3.0753   3.1332   3.1392   3.2167   3.2380
     3.4177   3.5246   3.6631   4.0556

          k = 0.0000 0.3194 0.1705 ( 54307 PWs)   bands (ev):

  -134.7656-134.7655-134.7655-134.7655 -76.4591 -76.4591 -76.4591 -76.4591
   -76.4568 -76.4568 -76.4568 -76.4568 -76.4526 -76.4526 -76.4526 -76.4526
   -55.3429 -55.3429 -55.3429 -55.3429 -55.3283 -55.3283 -55.3283 -55.3283
   -55.3283 -55.3283 -55.3282 -55.3282 -55.3070 -55.3070 -55.3069 -55.3069
   -55.2975 -55.2975 -55.2975 -55.2974 -55.2909 -55.2909 -55.2909 -55.2909
   -55.2909 -55.2909 -55.2909 -55.2909 -55.2892 -55.2892 -55.2892 -55.2892
   -55.2892 -55.2892 -55.2891 -55.2891 -55.1893 -55.1893 -55.1893 -55.1893
   -55.1889 -55.1889 -55.1889 -55.1889 -55.1828 -55.1828 -55.1828 -55.1828
   -55.1827 -55.1827 -55.1827 -55.1827 -55.1823 -55.1823 -55.1823 -55.1823
   -55.1823 -55.1823 -55.1822 -55.1822 -16.0341 -16.0333 -16.0326 -16.0319
   -11.9230 -11.9150 -11.9149 -11.9126 -11.8927 -11.8821 -11.8820 -11.8811
   -11.8342 -11.8339 -11.8336 -11.8333 -11.8326 -11.8324 -11.8321 -11.8318
   -11.8261 -11.8258 -11.8255 -11.8252  -9.5180  -9.4257  -9.4000  -9.3415
    -9.2307  -9.2221  -9.1967  -9.1930  -9.1403  -9.0877  -9.0855  -9.0808
    -3.4509  -3.1246  -3.0083  -2.9089  -2.8893  -2.8877  -2.8826  -2.8682
    -2.8625  -2.8604  -2.8521  -2.8512  -2.8447  -2.8418  -2.8286  -2.5962
     1.2206   1.3193   1.3366   1.4033   1.5187   1.5629   2.0375   2.1403
     2.1705   2.2183   2.2206   2.2788   2.4910   2.5146   2.5738   2.6430
     2.7271   2.7766   2.8290   2.8422   2.8521   2.8734   2.9064   2.9407
     3.0451   3.0495   3.0836   3.1023   3.1306   3.1376   3.1991   3.2265
     3.4091   3.5138   3.5426   3.8454

          k = 0.0000 0.3194-0.3410 ( 54288 PWs)   bands (ev):

  -134.7655-134.7655-134.7655-134.7655 -76.4591 -76.4591 -76.4591 -76.4591
   -76.4568 -76.4568 -76.4568 -76.4568 -76.4526 -76.4526 -76.4526 -76.4526
   -55.3429 -55.3429 -55.3429 -55.3429 -55.3283 -55.3283 -55.3283 -55.3283
   -55.3283 -55.3283 -55.3282 -55.3282 -55.3070 -55.3070 -55.3069 -55.3069
   -55.2975 -55.2975 -55.2974 -55.2974 -55.2909 -55.2909 -55.2909 -55.2909
   -55.2909 -55.2909 -55.2909 -55.2909 -55.2892 -55.2892 -55.2892 -55.2892
   -55.2891 -55.2891 -55.2891 -55.2891 -55.1893 -55.1893 -55.1893 -55.1893
   -55.1889 -55.1889 -55.1889 -55.1889 -55.1828 -55.1828 -55.1828 -55.1828
   -55.1827 -55.1827 -55.1827 -55.1827 -55.1823 -55.1823 -55.1823 -55.1823
   -55.1822 -55.1822 -55.1822 -55.1822 -16.0337 -16.0337 -16.0322 -16.0322
   -11.9149 -11.9149 -11.9080 -11.9080 -11.8970 -11.8970 -11.8820 -11.8820
   -11.8339 -11.8339 -11.8336 -11.8336 -11.8325 -11.8325 -11.8320 -11.8320
   -11.8259 -11.8259 -11.8254 -11.8254  -9.4821  -9.4821  -9.3778  -9.3778
    -9.1955  -9.1955  -9.1782  -9.1782  -9.1403  -9.1403  -9.0866  -9.0866
    -3.2956  -3.2956  -2.9114  -2.9114  -2.8874  -2.8874  -2.8763  -2.8763
    -2.8642  -2.8642  -2.8553  -2.8553  -2.8503  -2.8503  -2.7651  -2.7651
     1.3607   1.3607   1.4502   1.4502   1.8202   1.8202   1.8719   1.8719
     2.0892   2.0892   2.2147   2.2147   2.5310   2.5310   2.5941   2.5941
     2.7105   2.7105   2.7570   2.7570   2.8657   2.8657   2.9011   2.9011
     3.1024   3.1024   3.1228   3.1228   3.1453   3.1453   3.1629   3.1629
     3.4099   3.4099   3.6203   3.6203

          k = 0.0000-0.4791 0.0000 ( 54262 PWs)   bands (ev):

  -134.7655-134.7655-134.7655-134.7655 -76.4591 -76.4591 -76.4591 -76.4591
   -76.4568 -76.4568 -76.4568 -76.4568 -76.4526 -76.4526 -76.4526 -76.4526
   -55.3429 -55.3429 -55.3428 -55.3428 -55.3283 -55.3283 -55.3282 -55.3282
   -55.3282 -55.3282 -55.3282 -55.3282 -55.3070 -55.3070 -55.3070 -55.3070
   -55.2975 -55.2975 -55.2974 -55.2974 -55.2909 -55.2909 -55.2909 -55.2909
   -55.2909 -55.2909 -55.2909 -55.2909 -55.2892 -55.2892 -55.2892 -55.2892
   -55.2892 -55.2892 -55.2891 -55.2891 -55.1894 -55.1894 -55.1893 -55.1893
   -55.1889 -55.1889 -55.1889 -55.1889 -55.1828 -55.1828 -55.1827 -55.1827
   -55.1827 -55.1827 -55.1827 -55.1827 -55.1823 -55.1823 -55.1822 -55.1822
   -55.1822 -55.1822 -55.1822 -55.1822 -16.0335 -16.0335 -16.0324 -16.0324
   -11.9241 -11.9241 -11.8987 -11.8987 -11.8987 -11.8987 -11.8804 -11.8804
   -11.8342 -11.8342 -11.8333 -11.8333 -11.8324 -11.8324 -11.8321 -11.8321
   -11.8258 -11.8258 -11.8255 -11.8255  -9.4760  -9.4760  -9.3430  -9.3430
    -9.2762  -9.2762  -9.1431  -9.1431  -9.1388  -9.1388  -9.0859  -9.0859
    -3.2973  -3.2973  -2.9261  -2.9261  -2.8794  -2.8794  -2.8675  -2.8675
    -2.8619  -2.8619  -2.8543  -2.8543  -2.8387  -2.8387  -2.7502  -2.7502
     1.0765   1.0765   1.6203   1.6203   1.7548   1.7548   1.9333   1.9333
     1.9657   1.9657   2.2787   2.2787   2.5223   2.5223   2.6458   2.6458
     2.6951   2.6951   2.8698   2.8698   2.8812   2.8812   2.9743   2.9743
     2.9773   2.9773   3.1027   3.1027   3.1287   3.1287   3.1920   3.1920
     3.4076   3.4076   3.8039   3.8039

          k = 0.0000-0.4791 0.1705 ( 54316 PWs)   bands (ev):

  -134.7655-134.7655-134.7655-134.7655 -76.4591 -76.4591 -76.4591 -76.4591
   -76.4568 -76.4568 -76.4568 -76.4568 -76.4526 -76.4526 -76.4526 -76.4526
   -55.3429 -55.3429 -55.3429 -55.3429 -55.3283 -55.3283 -55.3283 -55.3283
   -55.3283 -55.3283 -55.3283 -55.3283 -55.3070 -55.3070 -55.3069 -55.3069
   -55.2975 -55.2975 -55.2975 -55.2975 -55.2909 -55.2909 -55.2909 -55.2909
   -55.2909 -55.2909 -55.2909 -55.2909 -55.2892 -55.2892 -55.2892 -55.2892
   -55.2892 -55.2892 -55.2891 -55.2891 -55.1894 -55.1894 -55.1893 -55.1893
   -55.1889 -55.1889 -55.1889 -55.1889 -55.1828 -55.1828 -55.1828 -55.1828
   -55.1828 -55.1828 -55.1827 -55.1827 -55.1823 -55.1823 -55.1823 -55.1823
   -55.1823 -55.1823 -55.1822 -55.1822 -16.0333 -16.0333 -16.0326 -16.0326
   -11.9178 -11.9178 -11.8987 -11.8987 -11.8987 -11.8987 -11.8869 -11.8869
   -11.8341 -11.8341 -11.8334 -11.8334 -11.8324 -11.8324 -11.8321 -11.8321
   -11.8258 -11.8258 -11.8255 -11.8255  -9.4658  -9.4658  -9.3862  -9.3862
    -9.2244  -9.2244  -9.1425  -9.1425  -9.1394  -9.1394  -9.1041  -9.1041
    -3.2371  -3.2371  -2.9446  -2.9446  -2.8829  -2.8829  -2.8793  -2.8793
    -2.8623  -2.8623  -2.8514  -2.8514  -2.8420  -2.8420  -2.8025  -2.8025
     1.2761   1.2761   1.6374   1.6374   1.7305   1.7305   1.9192   1.9192
     1.9614   1.9614   2.2430   2.2430   2.5513   2.5513   2.6347   2.6347
     2.6803   2.6803   2.7962   2.7962   2.8421   2.8421   2.8990   2.8990
     3.0644   3.0644   3.0905   3.0905   3.1511   3.1511   3.1926   3.1926
     3.4127   3.4127   3.6162   3.6162

          k = 0.0000-0.4791-0.3410 ( 54288 PWs)   bands (ev):

  -134.7655-134.7655-134.7655-134.7655 -76.4591 -76.4591 -76.4591 -76.4591
   -76.4568 -76.4568 -76.4568 -76.4568 -76.4526 -76.4526 -76.4526 -76.4526
   -55.3429 -55.3429 -55.3429 -55.3429 -55.3283 -55.3283 -55.3283 -55.3283
   -55.3282 -55.3282 -55.3282 -55.3282 -55.3070 -55.3070 -55.3070 -55.3070
   -55.2975 -55.2975 -55.2975 -55.2975 -55.2909 -55.2909 -55.2909 -55.2909
   -55.2909 -55.2909 -55.2909 -55.2909 -55.2892 -55.2892 -55.2892 -55.2892
   -55.2892 -55.2892 -55.2892 -55.2892 -55.1893 -55.1893 -55.1893 -55.1893
   -55.1889 -55.1889 -55.1889 -55.1889 -55.1828 -55.1828 -55.1828 -55.1828
   -55.1827 -55.1827 -55.1827 -55.1827 -55.1823 -55.1823 -55.1823 -55.1823
   -55.1822 -55.1822 -55.1822 -55.1822 -16.0329 -16.0329 -16.0329 -16.0329
   -11.9025 -11.9025 -11.9025 -11.9025 -11.8987 -11.8987 -11.8987 -11.8987
   -11.8338 -11.8338 -11.8338 -11.8338 -11.8322 -11.8322 -11.8322 -11.8322
   -11.8257 -11.8257 -11.8257 -11.8257  -9.4352  -9.4352  -9.4352  -9.4352
    -9.1558  -9.1558  -9.1558  -9.1558  -9.1401  -9.1401  -9.1401  -9.1401
    -3.0825  -3.0825  -3.0825  -3.0825  -2.8885  -2.8885  -2.8885  -2.8885
    -2.8588  -2.8588  -2.8588  -2.8588  -2.8342  -2.8342  -2.8342  -2.8342
     1.6569   1.6569   1.6569   1.6569   1.7231   1.7231   1.7231   1.7231
     2.0634   2.0634   2.0634   2.0634   2.6255   2.6255   2.6255   2.6255
     2.6705   2.6705   2.6705   2.6705   2.8280   2.8280   2.8280   2.8280
     3.1208   3.1208   3.1208   3.1208   3.1597   3.1597   3.1597   3.1597
     3.4471   3.4471   3.4471   3.4471

          k = 0.1667 0.0000 0.0000 ( 54301 PWs)   bands (ev):

  -134.7657-134.7655-134.7655-134.7654 -76.4591 -76.4591 -76.4591 -76.4591
   -76.4568 -76.4568 -76.4568 -76.4568 -76.4526 -76.4526 -76.4526 -76.4525
   -55.3429 -55.3429 -55.3429 -55.3428 -55.3283 -55.3283 -55.3283 -55.3283
   -55.3283 -55.3283 -55.3282 -55.3282 -55.3070 -55.3069 -55.3069 -55.3069
   -55.2975 -55.2975 -55.2975 -55.2974 -55.2910 -55.2909 -55.2909 -55.2909
   -55.2909 -55.2909 -55.2909 -55.2908 -55.2892 -55.2892 -55.2892 -55.2892
   -55.2892 -55.2892 -55.2891 -55.2891 -55.1893 -55.1893 -55.1893 -55.1893
   -55.1890 -55.1889 -55.1889 -55.1889 -55.1828 -55.1828 -55.1828 -55.1828
   -55.1827 -55.1827 -55.1827 -55.1827 -55.1823 -55.1823 -55.1823 -55.1823
   -55.1822 -55.1822 -55.1822 -55.1822 -16.0349 -16.0336 -16.0321 -16.0312
   -11.9330 -11.9266 -11.9265 -11.9154 -11.8907 -11.8703 -11.8696 -11.8696
   -11.8344 -11.8339 -11.8335 -11.8330 -11.8329 -11.8325 -11.8319 -11.8316
   -11.8263 -11.8259 -11.8253 -11.8250  -9.5637  -9.4054  -9.3202  -9.2776
    -9.2737  -9.2584  -9.2564  -9.2482  -9.1745  -9.0491  -9.0468  -9.0438
    -3.6562  -3.1944  -2.9022  -2.9019  -2.8877  -2.8840  -2.8747  -2.8696
    -2.8683  -2.8597  -2.8588  -2.8520  -2.8443  -2.8423  -2.8176  -2.2743
     1.0022   1.0806   1.1656   1.1741   1.1781   1.2547   2.1602   2.2910
     2.2975   2.3892   2.4086   2.4302   2.5559   2.5892   2.7049   2.7523
     2.7756   2.8046   2.8171   2.8631   2.9097   2.9262   2.9331   2.9613
     2.9710   3.0286   3.0797   3.0910   3.1161   3.1555   3.2567   3.2617
     3.3825   3.5790   3.8317   4.3730

          k = 0.1667 0.0000 0.1705 ( 54336 PWs)   bands (ev):

  -134.7656-134.7655-134.7655-134.7655 -76.4591 -76.4591 -76.4591 -76.4591
   -76.4568 -76.4568 -76.4568 -76.4568 -76.4526 -76.4526 -76.4526 -76.4526
   -55.3429 -55.3429 -55.3429 -55.3428 -55.3283 -55.3283 -55.3283 -55.3283
   -55.3283 -55.3282 -55.3282 -55.3282 -55.3070 -55.3070 -55.3070 -55.3070
   -55.2975 -55.2975 -55.2975 -55.2975 -55.2910 -55.2910 -55.2909 -55.2909
   -55.2909 -55.2909 -55.2909 -55.2909 -55.2892 -55.2892 -55.2892 -55.2892
   -55.2892 -55.2892 -55.2892 -55.2891 -55.1893 -55.1893 -55.1893 -55.1893
   -55.1890 -55.1890 -55.1889 -55.1889 -55.1828 -55.1828 -55.1828 -55.1828
   -55.1828 -55.1827 -55.1827 -55.1827 -55.1823 -55.1823 -55.1823 -55.1823
   -55.1822 -55.1822 -55.1822 -55.1822 -16.0347 -16.0338 -16.0320 -16.0313
   -11.9269 -11.9266 -11.9265 -11.9089 -11.8970 -11.8770 -11.8696 -11.8696
   -11.8343 -11.8338 -11.8337 -11.8332 -11.8328 -11.8326 -11.8319 -11.8316
   -11.8263 -11.8260 -11.8253 -11.8250  -9.5507  -9.4517  -9.3169  -9.2911
    -9.2553  -9.2497  -9.2354  -9.2201  -9.1828  -9.0677  -9.0488  -9.0471
    -3.5964  -3.2701  -2.9029  -2.9022  -2.8862  -2.8819  -2.8751  -2.8704
    -2.8629  -2.8611  -2.8566  -2.8516  -2.8496  -2.8325  -2.7700  -2.3784
     1.0930   1.1284   1.1622   1.2354   1.2870   1.3851   2.1827   2.2096
     2.2786   2.3757   2.4123   2.4137   2.4806   2.5496   2.5713   2.6840
     2.7844   2.8328   2.8647   2.8675   2.9019   2.9138   2.9604   2.9881
     2.9995   3.0336   3.0380   3.0930   3.1128   3.1193   3.2276   3.2338
     3.3761   3.4522   3.8509   4.1603

          k = 0.1667 0.0000-0.3410 ( 54336 PWs)   bands (ev):

  -134.7656-134.7656-134.7655-134.7655 -76.4591 -76.4591 -76.4591 -76.4591
   -76.4568 -76.4568 -76.4568 -76.4568 -76.4526 -76.4526 -76.4526 -76.4526
   -55.3429 -55.3429 -55.3429 -55.3429 -55.3283 -55.3283 -55.3283 -55.3283
   -55.3282 -55.3282 -55.3282 -55.3282 -55.3070 -55.3070 -55.3070 -55.3070
   -55.2975 -55.2975 -55.2975 -55.2975 -55.2909 -55.2909 -55.2909 -55.2909
   -55.2909 -55.2909 -55.2909 -55.2909 -55.2892 -55.2892 -55.2892 -55.2892
   -55.2892 -55.2892 -55.2891 -55.2891 -55.1893 -55.1893 -55.1893 -55.1893
   -55.1890 -55.1890 -55.1889 -55.1889 -55.1828 -55.1828 -55.1828 -55.1828
   -55.1828 -55.1828 -55.1827 -55.1827 -55.1823 -55.1823 -55.1823 -55.1823
   -55.1823 -55.1823 -55.1822 -55.1822 -16.0343 -16.0343 -16.0316 -16.0316
   -11.9266 -11.9266 -11.9121 -11.9121 -11.8930 -11.8930 -11.8696 -11.8696
   -11.8340 -11.8340 -11.8335 -11.8335 -11.8327 -11.8327 -11.8318 -11.8318
   -11.8261 -11.8261 -11.8251 -11.8251  -9.5119  -9.5119  -9.3073  -9.3073
    -9.2525  -9.2525  -9.2058  -9.2058  -9.1328  -9.1328  -9.0479  -9.0479
    -3.4417  -3.4417  -2.9023  -2.9023  -2.8836  -2.8836  -2.8681  -2.8681
    -2.8632  -2.8632  -2.8575  -2.8575  -2.8437  -2.8437  -2.5926  -2.5926
     1.1237   1.1237   1.1933   1.1933   1.7907   1.7907   1.8998   1.8998
     2.2504   2.2504   2.3892   2.3892   2.4873   2.4873   2.6118   2.6118
     2.8108   2.8108   2.8525   2.8525   2.9056   2.9056   2.9895   2.9895
     3.0058   3.0058   3.0969   3.0969   3.1385   3.1385   3.1541   3.1541
     3.3776   3.3776   3.9347   3.9347

          k = 0.1667 0.1597 0.0000 ( 54295 PWs)   bands (ev):

  -134.7657-134.7655-134.7654-134.7654 -76.4591 -76.4591 -76.4591 -76.4591
   -76.4568 -76.4568 -76.4568 -76.4568 -76.4526 -76.4526 -76.4526 -76.4525
   -55.3429 -55.3429 -55.3429 -55.3428 -55.3283 -55.3283 -55.3283 -55.3283
   -55.3283 -55.3282 -55.3282 -55.3282 -55.3070 -55.3070 -55.3070 -55.3069
   -55.2975 -55.2975 -55.2975 -55.2974 -55.2909 -55.2909 -55.2909 -55.2909
   -55.2909 -55.2909 -55.2909 -55.2908 -55.2892 -55.2892 -55.2892 -55.2892
   -55.2892 -55.2892 -55.2891 -55.2891 -55.1893 -55.1893 -55.1893 -55.1893
   -55.1890 -55.1889 -55.1889 -55.1889 -55.1828 -55.1828 -55.1828 -55.1828
   -55.1828 -55.1827 -55.1827 -55.1827 -55.1823 -55.1823 -55.1823 -55.1823
   -55.1822 -55.1822 -55.1822 -55.1822 -16.0347 -16.0335 -16.0323 -16.0313
   -11.9337 -11.9236 -11.9211 -11.9170 -11.8886 -11.8776 -11.8731 -11.8675
   -11.8344 -11.8340 -11.8335 -11.8331 -11.8328 -11.8324 -11.8320 -11.8316
   -11.8263 -11.8259 -11.8254 -11.8250  -9.5519  -9.3958  -9.3395  -9.2785
    -9.2743  -9.2624  -9.2623  -9.2416  -9.1425  -9.0768  -9.0610  -9.0348
    -3.6090  -3.1470  -2.9343  -2.9030  -2.8976  -2.8821  -2.8813  -2.8733
    -2.8671  -2.8593  -2.8554  -2.8440  -2.8435  -2.8416  -2.8281  -2.3485
     1.0111   1.0394   1.1324   1.1681   1.3893   1.4611   2.1339   2.1902
     2.2772   2.3147   2.3367   2.4321   2.4390   2.6062   2.7184   2.7421
     2.8081   2.8212   2.8277   2.8681   2.8945   2.9040   2.9283   2.9396
     3.0293   3.0334   3.0351   3.0746   3.1122   3.1370   3.2383   3.2551
     3.3951   3.6070   3.7485   4.2980

          k = 0.1667 0.1597 0.1705 ( 54316 PWs)   bands (ev):

  -134.7656-134.7655-134.7655-134.7655 -76.4591 -76.4591 -76.4591 -76.4591
   -76.4568 -76.4568 -76.4568 -76.4568 -76.4526 -76.4526 -76.4526 -76.4526
   -55.3429 -55.3429 -55.3429 -55.3428 -55.3283 -55.3283 -55.3283 -55.3283
   -55.3283 -55.3283 -55.3282 -55.3282 -55.3070 -55.3070 -55.3070 -55.3069
   -55.2975 -55.2975 -55.2975 -55.2974 -55.2909 -55.2909 -55.2909 -55.2909
   -55.2909 -55.2909 -55.2909 -55.2909 -55.2892 -55.2892 -55.2892 -55.2892
   -55.2892 -55.2892 -55.2892 -55.2891 -55.1893 -55.1893 -55.1893 -55.1893
   -55.1890 -55.1889 -55.1889 -55.1889 -55.1828 -55.1828 -55.1828 -55.1828
   -55.1828 -55.1827 -55.1827 -55.1827 -55.1823 -55.1823 -55.1823 -55.1823
   -55.1822 -55.1822 -55.1822 -55.1822 -16.0345 -16.0336 -16.0321 -16.0315
   -11.9290 -11.9237 -11.9196 -11.9106 -11.8948 -11.8814 -11.8730 -11.8705
   -11.8342 -11.8338 -11.8336 -11.8332 -11.8327 -11.8325 -11.8320 -11.8317
   -11.8262 -11.8259 -11.8253 -11.8251  -9.5391  -9.4421  -9.3346  -9.2968
    -9.2630  -9.2602  -9.2205  -9.2164  -9.1526  -9.0861  -9.0609  -9.0484
    -3.5493  -3.2224  -2.9055  -2.8997  -2.8949  -2.8805  -2.8800  -2.8683
    -2.8672  -2.8607  -2.8574  -2.8507  -2.8481  -2.8344  -2.8058  -2.4486
     1.0528   1.1185   1.2136   1.3674   1.4326   1.4448   2.1538   2.2006
     2.2095   2.2595   2.3213   2.4006   2.4408   2.5574   2.6240   2.6882
     2.7314   2.8121   2.8278   2.8696   2.8870   2.9301   2.9770   2.9791
     3.0010   3.0395   3.0483   3.0955   3.1035   3.1189   3.2169   3.2303
     3.3836   3.4696   3.7680   4.0864

          k = 0.1667 0.1597-0.3410 ( 54314 PWs)   bands (ev):

  -134.7655-134.7655-134.7655-134.7655 -76.4591 -76.4591 -76.4591 -76.4591
   -76.4568 -76.4568 -76.4568 -76.4568 -76.4526 -76.4526 -76.4526 -76.4526
   -55.3429 -55.3429 -55.3429 -55.3429 -55.3283 -55.3283 -55.3283 -55.3283
   -55.3283 -55.3283 -55.3283 -55.3283 -55.3070 -55.3070 -55.3070 -55.3070
   -55.2975 -55.2975 -55.2975 -55.2975 -55.2909 -55.2909 -55.2909 -55.2909
   -55.2909 -55.2909 -55.2909 -55.2909 -55.2892 -55.2892 -55.2892 -55.2892
   -55.2892 -55.2892 -55.2891 -55.2891 -55.1893 -55.1893 -55.1893 -55.1893
   -55.1890 -55.1890 -55.1889 -55.1889 -55.1828 -55.1828 -55.1828 -55.1828
   -55.1828 -55.1828 -55.1827 -55.1827 -55.1823 -55.1823 -55.1823 -55.1823
   -55.1823 -55.1823 -55.1822 -55.1822 -16.0341 -16.0341 -16.0318 -16.0318
   -11.9245 -11.9245 -11.9092 -11.9092 -11.8953 -11.8953 -11.8726 -11.8726
   -11.8340 -11.8340 -11.8335 -11.8335 -11.8326 -11.8326 -11.8318 -11.8318
   -11.8261 -11.8261 -11.8252 -11.8252  -9.5012  -9.5012  -9.3202  -9.3202
    -9.2614  -9.2614  -9.1802  -9.1802  -9.1378  -9.1378  -9.0593  -9.0593
    -3.3943  -3.3943  -2.9004  -2.9004  -2.8830  -2.8830  -2.8664  -2.8664
    -2.8629  -2.8629  -2.8564  -2.8564  -2.8480  -2.8480  -2.6534  -2.6534
     1.0864   1.0864   1.3866   1.3866   1.8163   1.8163   1.8689   1.8689
     2.2134   2.2134   2.2919   2.2919   2.4897   2.4897   2.6283   2.6283
     2.7271   2.7271   2.8466   2.8466   2.9097   2.9097   2.9603   2.9603
     3.0512   3.0512   3.1063   3.1063   3.1386   3.1386   3.1562   3.1562
     3.3816   3.3816   3.8552   3.8552

          k = 0.1667 0.3194 0.0000 ( 54261 PWs)   bands (ev):

  -134.7655-134.7655-134.7655-134.7654 -76.4591 -76.4591 -76.4591 -76.4591
   -76.4568 -76.4568 -76.4568 -76.4568 -76.4526 -76.4526 -76.4526 -76.4525
   -55.3429 -55.3429 -55.3428 -55.3428 -55.3283 -55.3283 -55.3283 -55.3282
   -55.3282 -55.3282 -55.3282 -55.3282 -55.3070 -55.3070 -55.3070 -55.3069
   -55.2975 -55.2975 -55.2975 -55.2974 -55.2909 -55.2909 -55.2909 -55.2909
   -55.2909 -55.2909 -55.2909 -55.2909 -55.2892 -55.2892 -55.2892 -55.2892
   -55.2892 -55.2892 -55.2891 -55.2891 -55.1893 -55.1893 -55.1893 -55.1893
   -55.1889 -55.1889 -55.1889 -55.1889 -55.1828 -55.1828 -55.1828 -55.1828
   -55.1828 -55.1827 -55.1827 -55.1827 -55.1823 -55.1823 -55.1822 -55.1822
   -55.1822 -55.1822 -55.1822 -55.1822 -16.0342 -16.0330 -16.0327 -16.0318
   -11.9317 -11.9214 -11.9152 -11.9097 -11.8895 -11.8831 -11.8827 -11.8701
   -11.8343 -11.8341 -11.8334 -11.8332 -11.8326 -11.8323 -11.8322 -11.8318
   -11.8261 -11.8257 -11.8256 -11.8252  -9.5176  -9.3996  -9.3690  -9.2917
    -9.2778  -9.2755  -9.2327  -9.2042  -9.1240  -9.0997  -9.0965  -9.0404
    -3.4773  -3.0890  -3.0195  -2.9037  -2.8875  -2.8764  -2.8763  -2.8699
    -2.8638  -2.8594  -2.8523  -2.8471  -2.8446  -2.8351  -2.8305  -2.5342
     1.0359   1.1150   1.1557   1.2627   1.7382   1.8036   1.8106   1.9245
     2.2191   2.2441   2.2731   2.4324   2.4752   2.6133   2.6416   2.6611
     2.8225   2.8362   2.8482   2.8670   2.8757   2.8855   2.9245   2.9306
     2.9994   3.0163   3.0492   3.0938   3.1013   3.1237   3.1950   3.2266
     3.3982   3.5427   3.6891   4.0784

          k = 0.1667 0.3194 0.1705 ( 54295 PWs)   bands (ev):

  -134.7655-134.7655-134.7655-134.7655 -76.4591 -76.4591 -76.4591 -76.4591
   -76.4568 -76.4568 -76.4568 -76.4568 -76.4526 -76.4526 -76.4526 -76.4526
   -55.3429 -55.3429 -55.3429 -55.3428 -55.3283 -55.3283 -55.3283 -55.3283
   -55.3283 -55.3282 -55.3282 -55.3282 -55.3070 -55.3070 -55.3070 -55.3069
   -55.2975 -55.2975 -55.2975 -55.2975 -55.2909 -55.2909 -55.2909 -55.2909
   -55.2909 -55.2909 -55.2909 -55.2909 -55.2892 -55.2892 -55.2892 -55.2892
   -55.2892 -55.2892 -55.2891 -55.2891 -55.1893 -55.1893 -55.1893 -55.1893
   -55.1889 -55.1889 -55.1889 -55.1889 -55.1828 -55.1828 -55.1828 -55.1828
   -55.1828 -55.1828 -55.1827 -55.1827 -55.1823 -55.1823 -55.1823 -55.1823
   -55.1822 -55.1822 -55.1822 -55.1822 -16.0340 -16.0332 -16.0326 -16.0319
   -11.9267 -11.9157 -11.9153 -11.9084 -11.8916 -11.8889 -11.8823 -11.8746
   -11.8342 -11.8339 -11.8336 -11.8333 -11.8326 -11.8323 -11.8321 -11.8319
   -11.8260 -11.8258 -11.8255 -11.8253  -9.5058  -9.4149  -9.3919  -9.3315
    -9.2454  -9.2347  -9.2222  -9.1884  -9.1284  -9.1100  -9.0978  -9.0570
    -3.4174  -3.0901  -3.0307  -2.9014  -2.8907  -2.8797  -2.8782  -2.8653
    -2.8635  -2.8597  -2.8560  -2.8493  -2.8443  -2.8403  -2.8316  -2.6239
     1.1581   1.2328   1.2585   1.3284   1.7551   1.7778   1.8408   1.8935
     2.2060   2.2300   2.2680   2.3324   2.4893   2.5743   2.6051   2.6346
     2.7471   2.7919   2.7976   2.8331   2.8475   2.8993   2.9378   2.9651
     3.0226   3.0520   3.0718   3.0853   3.1167   3.1399   3.1914   3.2129
     3.3886   3.5229   3.5589   3.8707

          k = 0.1667 0.3194-0.3410 ( 54290 PWs)   bands (ev):

  -134.7655-134.7655-134.7655-134.7655 -76.4591 -76.4591 -76.4591 -76.4591
   -76.4568 -76.4568 -76.4568 -76.4568 -76.4526 -76.4526 -76.4526 -76.4526
   -55.3429 -55.3429 -55.3429 -55.3429 -55.3283 -55.3283 -55.3283 -55.3283
   -55.3283 -55.3283 -55.3282 -55.3282 -55.3070 -55.3070 -55.3069 -55.3069
   -55.2975 -55.2975 -55.2975 -55.2975 -55.2909 -55.2909 -55.2909 -55.2909
   -55.2909 -55.2909 -55.2909 -55.2909 -55.2892 -55.2892 -55.2892 -55.2892
   -55.2892 -55.2892 -55.2891 -55.2891 -55.1893 -55.1893 -55.1893 -55.1893
   -55.1890 -55.1890 -55.1889 -55.1889 -55.1828 -55.1828 -55.1828 -55.1828
   -55.1827 -55.1827 -55.1827 -55.1827 -55.1823 -55.1823 -55.1823 -55.1823
   -55.1822 -55.1822 -55.1822 -55.1822 -16.0336 -16.0336 -16.0323 -16.0323
   -11.9186 -11.9186 -11.9017 -11.9017 -11.9013 -11.9013 -11.8805 -11.8805
   -11.8339 -11.8339 -11.8336 -11.8336 -11.8324 -11.8324 -11.8320 -11.8320
   -11.8259 -11.8259 -11.8254 -11.8254  -9.4705  -9.4705  -9.3688  -9.3688
    -9.2350  -9.2350  -9.1567  -9.1567  -9.1457  -9.1457  -9.0869  -9.0869
    -3.2614  -3.2614  -2.9129  -2.9129  -2.8883  -2.8883  -2.8754  -2.8754
    -2.8624  -2.8624  -2.8557  -2.8557  -2.8492  -2.8492  -2.7823  -2.7823
     1.2005   1.2005   1.6353   1.6353   1.7511   1.7511   1.9256   1.9256
     1.9631   1.9631   2.2547   2.2547   2.5328   2.5328   2.6314   2.6314
     2.6632   2.6632   2.8132   2.8132   2.8438   2.8438   2.9624   2.9624
     3.0632   3.0632   3.1238   3.1238   3.1437   3.1437   3.1673   3.1673
     3.3927   3.3927   3.6393   3.6393

          k = 0.1667-0.4791 0.0000 ( 54268 PWs)   bands (ev):

  -134.7655-134.7655-134.7655-134.7655 -76.4591 -76.4591 -76.4591 -76.4591
   -76.4568 -76.4568 -76.4568 -76.4568 -76.4526 -76.4526 -76.4526 -76.4526
   -55.3429 -55.3429 -55.3428 -55.3428 -55.3283 -55.3283 -55.3283 -55.3283
   -55.3282 -55.3282 -55.3282 -55.3282 -55.3070 -55.3070 -55.3069 -55.3069
   -55.2975 -55.2975 -55.2974 -55.2974 -55.2909 -55.2909 -55.2909 -55.2909
   -55.2909 -55.2909 -55.2909 -55.2909 -55.2892 -55.2892 -55.2892 -55.2892
   -55.2892 -55.2892 -55.2891 -55.2891 -55.1893 -55.1893 -55.1893 -55.1893
   -55.1889 -55.1889 -55.1889 -55.1889 -55.1828 -55.1828 -55.1828 -55.1828
   -55.1827 -55.1827 -55.1827 -55.1827 -55.1823 -55.1823 -55.1822 -55.1822
   -55.1822 -55.1822 -55.1822 -55.1822 -16.0335 -16.0335 -16.0324 -16.0324
   -11.9269 -11.9269 -11.9030 -11.9030 -11.8959 -11.8959 -11.8761 -11.8761
   -11.8342 -11.8342 -11.8333 -11.8333 -11.8324 -11.8324 -11.8320 -11.8320
   -11.8258 -11.8258 -11.8255 -11.8255  -9.4645  -9.4645  -9.3311  -9.3311
    -9.2768  -9.2768  -9.1804  -9.1804  -9.1522  -9.1522  -9.0613  -9.0613
    -3.2891  -3.2891  -2.9156  -2.9156  -2.8762  -2.8762  -2.8654  -2.8654
    -2.8625  -2.8625  -2.8531  -2.8531  -2.8401  -2.8401  -2.7437  -2.7437
     1.0719   1.0719   1.4249   1.4249   1.5389   1.5389   2.0846   2.0846
     2.1859   2.1859   2.2437   2.2437   2.5390   2.5390   2.6990   2.6990
     2.7313   2.7313   2.8753   2.8753   2.8760   2.8760   2.9685   2.9685
     2.9876   2.9876   3.0646   3.0646   3.1111   3.1111   3.1864   3.1864
     3.4115   3.4115   3.8430   3.8430

          k = 0.1667-0.4791 0.1705 ( 54308 PWs)   bands (ev):

  -134.7655-134.7655-134.7655-134.7655 -76.4591 -76.4591 -76.4591 -76.4591
   -76.4568 -76.4568 -76.4568 -76.4568 -76.4526 -76.4526 -76.4526 -76.4526
   -55.3429 -55.3429 -55.3429 -55.3429 -55.3283 -55.3283 -55.3283 -55.3283
   -55.3283 -55.3283 -55.3282 -55.3282 -55.3070 -55.3070 -55.3069 -55.3069
   -55.2975 -55.2975 -55.2975 -55.2975 -55.2909 -55.2909 -55.2909 -55.2909
   -55.2909 -55.2909 -55.2909 -55.2909 -55.2892 -55.2892 -55.2892 -55.2892
   -55.2892 -55.2892 -55.2892 -55.2892 -55.1893 -55.1893 -55.1893 -55.1893
   -55.1889 -55.1889 -55.1889 -55.1889 -55.1828 -55.1828 -55.1828 -55.1828
   -55.1827 -55.1827 -55.1827 -55.1827 -55.1823 -55.1823 -55.1823 -55.1823
   -55.1822 -55.1822 -55.1822 -55.1822 -16.0333 -16.0333 -16.0325 -16.0325
   -11.9214 -11.9214 -11.9042 -11.9042 -11.8951 -11.8951 -11.8814 -11.8814
   -11.8341 -11.8341 -11.8335 -11.8335 -11.8323 -11.8323 -11.8321 -11.8321
   -11.8258 -11.8258 -11.8255 -11.8255  -9.4543  -9.4543  -9.3753  -9.3753
    -9.2307  -9.2307  -9.1821  -9.1821  -9.1459  -9.1459  -9.0774  -9.0774
    -3.2288  -3.2288  -2.9334  -2.9334  -2.8799  -2.8799  -2.8772  -2.8772
    -2.8622  -2.8622  -2.8510  -2.8510  -2.8416  -2.8416  -2.7986  -2.7986
     1.2659   1.2659   1.4541   1.4541   1.5199   1.5199   2.0969   2.0969
     2.1242   2.1242   2.2292   2.2292   2.5300   2.5300   2.6603   2.6603
     2.7114   2.7114   2.8131   2.8131   2.8741   2.8741   2.9215   2.9215
     3.0458   3.0458   3.0747   3.0747   3.1435   3.1435   3.1835   3.1835
     3.4142   3.4142   3.6481   3.6481

          k = 0.1667-0.4791-0.3410 ( 54312 PWs)   bands (ev):

  -134.7655-134.7655-134.7655-134.7655 -76.4591 -76.4591 -76.4591 -76.4591
   -76.4568 -76.4568 -76.4568 -76.4568 -76.4526 -76.4526 -76.4526 -76.4526
   -55.3429 -55.3429 -55.3429 -55.3429 -55.3283 -55.3283 -55.3283 -55.3283
   -55.3282 -55.3282 -55.3282 -55.3282 -55.3070 -55.3070 -55.3070 -55.3070
   -55.2975 -55.2975 -55.2975 -55.2975 -55.2909 -55.2909 -55.2909 -55.2909
   -55.2909 -55.2909 -55.2909 -55.2909 -55.2892 -55.2892 -55.2892 -55.2892
   -55.2892 -55.2892 -55.2892 -55.2892 -55.1893 -55.1893 -55.1893 -55.1893
   -55.1889 -55.1889 -55.1889 -55.1889 -55.1828 -55.1828 -55.1828 -55.1828
   -55.1828 -55.1828 -55.1828 -55.1828 -55.1823 -55.1823 -55.1823 -55.1823
   -55.1822 -55.1822 -55.1822 -55.1822 -16.0329 -16.0329 -16.0329 -16.0329
   -11.9102 -11.9102 -11.9102 -11.9102 -11.8910 -11.8910 -11.8910 -11.8910
   -11.8338 -11.8338 -11.8338 -11.8338 -11.8322 -11.8322 -11.8322 -11.8322
   -11.8257 -11.8257 -11.8257 -11.8257  -9.4239  -9.4239  -9.4239  -9.4239
    -9.1921  -9.1921  -9.1921  -9.1921  -9.1167  -9.1167  -9.1167  -9.1167
    -3.0734  -3.0734  -3.0734  -3.0734  -2.8845  -2.8845  -2.8845  -2.8845
    -2.8578  -2.8578  -2.8578  -2.8578  -2.8336  -2.8336  -2.8336  -2.8336
     1.4571   1.4571   1.4571   1.4571   1.7917   1.7917   1.7917   1.7917
     2.1489   2.1489   2.1489   2.1489   2.5769   2.5769   2.5769   2.5769
     2.7241   2.7241   2.7241   2.7241   2.8849   2.8849   2.8849   2.8849
     3.1030   3.1030   3.1030   3.1030   3.1599   3.1599   3.1599   3.1599
     3.4540   3.4540   3.4540   3.4540

          k = 0.3333 0.0000 0.0000 ( 54281 PWs)   bands (ev):

  -134.7656-134.7655-134.7655-134.7654 -76.4591 -76.4591 -76.4591 -76.4591
   -76.4568 -76.4568 -76.4568 -76.4568 -76.4526 -76.4526 -76.4526 -76.4525
   -55.3429 -55.3429 -55.3429 -55.3428 -55.3283 -55.3283 -55.3283 -55.3283
   -55.3283 -55.3283 -55.3282 -55.3282 -55.3070 -55.3070 -55.3069 -55.3069
   -55.2975 -55.2975 -55.2975 -55.2974 -55.2909 -55.2909 -55.2909 -55.2909
   -55.2909 -55.2909 -55.2909 -55.2909 -55.2892 -55.2892 -55.2892 -55.2892
   -55.2892 -55.2892 -55.2891 -55.2891 -55.1893 -55.1893 -55.1893 -55.1893
   -55.1890 -55.1890 -55.1889 -55.1888 -55.1828 -55.1828 -55.1828 -55.1828
   -55.1828 -55.1827 -55.1827 -55.1827 -55.1823 -55.1823 -55.1823 -55.1823
   -55.1822 -55.1822 -55.1822 -55.1822 -16.0344 -16.0334 -16.0323 -16.0316
   -11.9292 -11.9191 -11.9150 -11.9149 -11.8863 -11.8821 -11.8821 -11.8745
   -11.8343 -11.8340 -11.8334 -11.8331 -11.8327 -11.8323 -11.8321 -11.8318
   -11.8261 -11.8257 -11.8255 -11.8252  -9.5273  -9.3986  -9.3761  -9.2914
    -9.2777  -9.2754  -9.2131  -9.2058  -9.1222  -9.0926  -9.0896  -9.0577
    -3.5070  -3.0480  -3.0448  -2.8951  -2.8865  -2.8835  -2.8831  -2.8682
    -2.8668  -2.8658  -2.8568  -2.8484  -2.8420  -2.8390  -2.8327  -2.5039
     1.0331   1.1285   1.2853   1.3997   1.5181   1.5938   1.9627   2.1664
     2.1757   2.2530   2.3026   2.3740   2.4539   2.5540   2.6237   2.6288
     2.8018   2.8132   2.8394   2.8917   2.9255   2.9336   2.9400   2.9578
     2.9821   3.0035   3.0517   3.0600   3.1090   3.1260   3.2208   3.2374
     3.3150   3.4890   3.6320   4.0120

          k = 0.3333 0.0000 0.1705 ( 54286 PWs)   bands (ev):

  -134.7655-134.7655-134.7655-134.7655 -76.4591 -76.4591 -76.4591 -76.4591
   -76.4568 -76.4568 -76.4568 -76.4568 -76.4526 -76.4526 -76.4526 -76.4526
   -55.3429 -55.3429 -55.3428 -55.3428 -55.3283 -55.3283 -55.3283 -55.3283
   -55.3283 -55.3283 -55.3283 -55.3282 -55.3070 -55.3070 -55.3070 -55.3069
   -55.2975 -55.2975 -55.2975 -55.2975 -55.2909 -55.2909 -55.2909 -55.2909
   -55.2909 -55.2909 -55.2909 -55.2909 -55.2892 -55.2892 -55.2892 -55.2892
   -55.2892 -55.2892 -55.2891 -55.2891 -55.1893 -55.1893 -55.1893 -55.1893
   -55.1890 -55.1890 -55.1889 -55.1889 -55.1828 -55.1828 -55.1828 -55.1828
   -55.1828 -55.1827 -55.1827 -55.1827 -55.1823 -55.1823 -55.1823 -55.1823
   -55.1822 -55.1822 -55.1822 -55.1822 -16.0342 -16.0335 -16.0323 -16.0317
   -11.9230 -11.9150 -11.9149 -11.9126 -11.8927 -11.8821 -11.8821 -11.8811
   -11.8342 -11.8339 -11.8336 -11.8333 -11.8326 -11.8324 -11.8321 -11.8318
   -11.8261 -11.8258 -11.8255 -11.8252  -9.5153  -9.4227  -9.3913  -9.3333
    -9.2265  -9.2221  -9.2122  -9.2059  -9.1357  -9.0923  -9.0900  -9.0795
    -3.4470  -3.1200  -2.9842  -2.8971  -2.8928  -2.8827  -2.8777  -2.8714
    -2.8659  -2.8635  -2.8543  -2.8502  -2.8466  -2.8418  -2.8335  -2.5985
     1.2229   1.3006   1.3337   1.3816   1.5634   1.5656   1.9825   2.1190
     2.1898   2.2021   2.2724   2.2782   2.4886   2.5512   2.5684   2.6499
     2.7275   2.7870   2.8429   2.8652   2.8934   2.9052   2.9490   2.9735
     3.0222   3.0337   3.0649   3.0899   3.0907   3.1246   3.1981   3.2244
     3.3172   3.4629   3.4958   3.7836

          k = 0.3333 0.0000-0.3410 ( 54302 PWs)   bands (ev):

  -134.7655-134.7655-134.7655-134.7655 -76.4591 -76.4591 -76.4591 -76.4591
   -76.4568 -76.4568 -76.4568 -76.4568 -76.4526 -76.4526 -76.4526 -76.4526
   -55.3429 -55.3429 -55.3428 -55.3428 -55.3283 -55.3283 -55.3283 -55.3283
   -55.3283 -55.3283 -55.3283 -55.3283 -55.3070 -55.3070 -55.3069 -55.3069
   -55.2975 -55.2975 -55.2974 -55.2974 -55.2909 -55.2909 -55.2909 -55.2909
   -55.2909 -55.2909 -55.2909 -55.2909 -55.2892 -55.2892 -55.2892 -55.2892
   -55.2892 -55.2892 -55.2891 -55.2891 -55.1893 -55.1893 -55.1893 -55.1893
   -55.1890 -55.1890 -55.1889 -55.1889 -55.1828 -55.1828 -55.1828 -55.1828
   -55.1827 -55.1827 -55.1827 -55.1827 -55.1823 -55.1823 -55.1823 -55.1823
   -55.1823 -55.1823 -55.1822 -55.1822 -16.0338 -16.0338 -16.0320 -16.0320
   -11.9150 -11.9150 -11.9079 -11.9079 -11.8970 -11.8970 -11.8821 -11.8821
   -11.8339 -11.8339 -11.8336 -11.8336 -11.8325 -11.8325 -11.8320 -11.8320
   -11.8259 -11.8259 -11.8254 -11.8254  -9.4794  -9.4794  -9.3696  -9.3696
    -9.2099  -9.2099  -9.1742  -9.1742  -9.1388  -9.1388  -9.0912  -9.0912
    -3.2912  -3.2912  -2.8970  -2.8970  -2.8865  -2.8865  -2.8765  -2.8765
    -2.8563  -2.8563  -2.8554  -2.8554  -2.8389  -2.8389  -2.7884  -2.7884
     1.3391   1.3391   1.4755   1.4755   1.8064   1.8064   1.8712   1.8712
     2.0538   2.0538   2.2363   2.2363   2.5549   2.5549   2.5980   2.5980
     2.7247   2.7247   2.7934   2.7934   2.9161   2.9161   2.9310   2.9310
     3.0601   3.0601   3.1056   3.1056   3.1303   3.1303   3.1650   3.1650
     3.3366   3.3366   3.5502   3.5502

          k = 0.3333 0.1597 0.0000 ( 54289 PWs)   bands (ev):

  -134.7656-134.7655-134.7655-134.7654 -76.4591 -76.4591 -76.4591 -76.4591
   -76.4568 -76.4568 -76.4568 -76.4568 -76.4526 -76.4526 -76.4526 -76.4525
   -55.3429 -55.3429 -55.3429 -55.3428 -55.3283 -55.3283 -55.3283 -55.3283
   -55.3283 -55.3283 -55.3283 -55.3282 -55.3070 -55.3070 -55.3069 -55.3069
   -55.2975 -55.2975 -55.2975 -55.2975 -55.2909 -55.2909 -55.2909 -55.2909
   -55.2909 -55.2909 -55.2909 -55.2909 -55.2892 -55.2892 -55.2892 -55.2892
   -55.2892 -55.2892 -55.2892 -55.2891 -55.1893 -55.1893 -55.1893 -55.1893
   -55.1890 -55.1889 -55.1889 -55.1889 -55.1828 -55.1828 -55.1828 -55.1828
   -55.1828 -55.1828 -55.1827 -55.1827 -55.1823 -55.1823 -55.1823 -55.1823
   -55.1822 -55.1822 -55.1822 -55.1822 -16.0342 -16.0333 -16.0324 -16.0317
   -11.9317 -11.9214 -11.9152 -11.9097 -11.8895 -11.8831 -11.8828 -11.8701
   -11.8343 -11.8341 -11.8334 -11.8332 -11.8326 -11.8323 -11.8322 -11.8318
   -11.8261 -11.8257 -11.8256 -11.8252  -9.5156  -9.3930  -9.3660  -9.2806
    -9.2783  -9.2759  -9.2413  -9.2156  -9.1271  -9.1030  -9.0950  -9.0407
    -3.4745  -3.0779  -3.0161  -2.8918  -2.8846  -2.8814  -2.8776  -2.8683
    -2.8630  -2.8622  -2.8532  -2.8506  -2.8407  -2.8354  -2.8349  -2.5335
     1.0354   1.1133   1.1479   1.2668   1.7341   1.7849   1.8278   1.9332
     2.2162   2.2326   2.2701   2.4708   2.4870   2.5912   2.6622   2.6919
     2.7930   2.8041   2.8574   2.8962   2.8985   2.9301   2.9360   2.9566
     2.9625   2.9794   3.0384   3.0810   3.0875   3.1198   3.1858   3.2291
     3.3436   3.5194   3.6690   4.0524

          k = 0.3333 0.1597 0.1705 ( 54291 PWs)   bands (ev):

  -134.7655-134.7655-134.7655-134.7655 -76.4591 -76.4591 -76.4591 -76.4591
   -76.4568 -76.4568 -76.4568 -76.4568 -76.4526 -76.4526 -76.4526 -76.4526
   -55.3429 -55.3429 -55.3428 -55.3428 -55.3283 -55.3283 -55.3283 -55.3283
   -55.3283 -55.3282 -55.3282 -55.3282 -55.3070 -55.3070 -55.3070 -55.3069
   -55.2975 -55.2975 -55.2975 -55.2975 -55.2909 -55.2909 -55.2909 -55.2909
   -55.2909 -55.2909 -55.2909 -55.2909 -55.2892 -55.2892 -55.2892 -55.2892
   -55.2892 -55.2892 -55.2892 -55.2892 -55.1893 -55.1893 -55.1893 -55.1893
   -55.1890 -55.1890 -55.1889 -55.1889 -55.1828 -55.1828 -55.1828 -55.1828
   -55.1828 -55.1827 -55.1827 -55.1827 -55.1823 -55.1823 -55.1823 -55.1823
   -55.1822 -55.1822 -55.1822 -55.1822 -16.0341 -16.0334 -16.0324 -16.0318
   -11.9267 -11.9157 -11.9153 -11.9084 -11.8917 -11.8889 -11.8824 -11.8746
   -11.8342 -11.8339 -11.8336 -11.8333 -11.8326 -11.8323 -11.8321 -11.8319
   -11.8260 -11.8258 -11.8255 -11.8253  -9.5038  -9.4128  -9.3852  -9.3249
    -9.2471  -9.2423  -9.2225  -9.1942  -9.1311  -9.1087  -9.1010  -9.0577
    -3.4145  -3.0868  -3.0176  -2.8937  -2.8898  -2.8792  -2.8739  -2.8698
    -2.8656  -2.8585  -2.8545  -2.8521  -2.8448  -2.8382  -2.8364  -2.6257
     1.1554   1.2290   1.2550   1.3316   1.7596   1.7798   1.8268   1.8964
     2.1900   2.2177   2.2664   2.3640   2.5028   2.5805   2.6130   2.6450
     2.7444   2.7688   2.8219   2.8406   2.9136   2.9247   2.9424   2.9891
     3.0168   3.0209   3.0620   3.0745   3.0868   3.1270   3.1784   3.2161
     3.3346   3.4889   3.5316   3.8353

          k = 0.3333 0.1597-0.3410 ( 54290 PWs)   bands (ev):

  -134.7655-134.7655-134.7655-134.7655 -76.4591 -76.4591 -76.4591 -76.4591
   -76.4568 -76.4568 -76.4568 -76.4568 -76.4526 -76.4526 -76.4525 -76.4525
   -55.3429 -55.3429 -55.3429 -55.3429 -55.3283 -55.3283 -55.3283 -55.3283
   -55.3283 -55.3283 -55.3282 -55.3282 -55.3070 -55.3070 -55.3070 -55.3070
   -55.2975 -55.2975 -55.2975 -55.2975 -55.2909 -55.2909 -55.2909 -55.2909
   -55.2909 -55.2909 -55.2909 -55.2909 -55.2892 -55.2892 -55.2892 -55.2892
   -55.2892 -55.2892 -55.2892 -55.2892 -55.1893 -55.1893 -55.1893 -55.1893
   -55.1890 -55.1890 -55.1889 -55.1889 -55.1828 -55.1828 -55.1828 -55.1828
   -55.1827 -55.1827 -55.1827 -55.1827 -55.1823 -55.1823 -55.1823 -55.1823
   -55.1822 -55.1822 -55.1822 -55.1822 -16.0337 -16.0337 -16.0322 -16.0322
   -11.9186 -11.9186 -11.9017 -11.9017 -11.9013 -11.9013 -11.8805 -11.8805
   -11.8339 -11.8339 -11.8336 -11.8336 -11.8325 -11.8325 -11.8320 -11.8320
   -11.8259 -11.8259 -11.8254 -11.8254  -9.4685  -9.4685  -9.3623  -9.3623
    -9.2418  -9.2418  -9.1577  -9.1577  -9.1456  -9.1456  -9.0893  -9.0893
    -3.2583  -3.2583  -2.8991  -2.8991  -2.8911  -2.8911  -2.8739  -2.8739
    -2.8579  -2.8579  -2.8533  -2.8533  -2.8466  -2.8466  -2.7971  -2.7971
     1.1980   1.1980   1.6380   1.6380   1.7511   1.7511   1.9054   1.9054
     1.9620   1.9620   2.2611   2.2611   2.5480   2.5480   2.6267   2.6267
     2.6874   2.6874   2.8275   2.8275   2.8894   2.8894   2.9712   2.9712
     3.0449   3.0449   3.1052   3.1052   3.1283   3.1283   3.1657   3.1657
     3.3432   3.3432   3.6003   3.6003

          k = 0.3333 0.3194 0.0000 ( 54288 PWs)   bands (ev):

  -134.7655-134.7655-134.7655-134.7655 -76.4591 -76.4591 -76.4591 -76.4591
   -76.4568 -76.4568 -76.4568 -76.4568 -76.4526 -76.4526 -76.4526 -76.4525
   -55.3429 -55.3429 -55.3428 -55.3428 -55.3283 -55.3283 -55.3283 -55.3283
   -55.3283 -55.3283 -55.3282 -55.3282 -55.3070 -55.3070 -55.3070 -55.3069
   -55.2975 -55.2975 -55.2975 -55.2974 -55.2909 -55.2909 -55.2909 -55.2909
   -55.2909 -55.2909 -55.2909 -55.2909 -55.2892 -55.2892 -55.2892 -55.2892
   -55.2892 -55.2892 -55.2892 -55.2892 -55.1893 -55.1893 -55.1893 -55.1893
   -55.1889 -55.1889 -55.1889 -55.1889 -55.1828 -55.1828 -55.1828 -55.1828
   -55.1828 -55.1827 -55.1827 -55.1827 -55.1823 -55.1823 -55.1823 -55.1823
   -55.1822 -55.1822 -55.1822 -55.1822 -16.0339 -16.0332 -16.0326 -16.0320
   -11.9334 -11.9266 -11.9139 -11.9002 -11.9001 -11.8855 -11.8762 -11.8677
   -11.8343 -11.8341 -11.8334 -11.8332 -11.8325 -11.8322 -11.8321 -11.8319
   -11.8260 -11.8257 -11.8256 -11.8253  -9.4825  -9.3962  -9.3380  -9.2814
    -9.2772  -9.2677  -9.2625  -9.2250  -9.1820  -9.1390  -9.0593  -9.0298
    -3.3876  -3.1609  -2.9406  -2.8860  -2.8807  -2.8743  -2.8696  -2.8678
    -2.8596  -2.8542  -2.8524  -2.8495  -2.8438  -2.8403  -2.8103  -2.6175
     1.0440   1.0814   1.0876   1.2196   1.4552   1.5901   2.0375   2.1620
     2.1916   2.2016   2.2826   2.5278   2.5419   2.6063   2.7252   2.7301
     2.8014   2.8281   2.8550   2.8643   2.8740   2.9003   2.9263   2.9588
     2.9716   2.9891   2.9963   3.0324   3.0454   3.1164   3.1812   3.2157
     3.3858   3.5296   3.7780   4.0644

          k = 0.3333 0.3194 0.1705 ( 54293 PWs)   bands (ev):

  -134.7655-134.7655-134.7655-134.7655 -76.4591 -76.4591 -76.4591 -76.4591
   -76.4568 -76.4568 -76.4568 -76.4568 -76.4526 -76.4526 -76.4526 -76.4525
   -55.3429 -55.3429 -55.3429 -55.3428 -55.3283 -55.3283 -55.3283 -55.3283
   -55.3283 -55.3283 -55.3282 -55.3282 -55.3070 -55.3070 -55.3070 -55.3069
   -55.2975 -55.2975 -55.2975 -55.2975 -55.2909 -55.2909 -55.2909 -55.2909
   -55.2909 -55.2909 -55.2909 -55.2909 -55.2892 -55.2892 -55.2892 -55.2892
   -55.2892 -55.2892 -55.2892 -55.2892 -55.1893 -55.1893 -55.1893 -55.1893
   -55.1889 -55.1889 -55.1889 -55.1889 -55.1828 -55.1828 -55.1828 -55.1828
   -55.1827 -55.1827 -55.1827 -55.1827 -55.1823 -55.1823 -55.1823 -55.1823
   -55.1823 -55.1822 -55.1822 -55.1822 -16.0337 -16.0331 -16.0326 -16.0321
   -11.9288 -11.9212 -11.9152 -11.9022 -11.8985 -11.8845 -11.8814 -11.8722
   -11.8341 -11.8340 -11.8335 -11.8334 -11.8325 -11.8322 -11.8322 -11.8319
   -11.8259 -11.8256 -11.8256 -11.8254  -9.4713  -9.3875  -9.3846  -9.3166
    -9.2674  -9.2671  -9.2313  -9.1858  -9.1773  -9.1286  -9.0751  -9.0473
    -3.3272  -3.1007  -2.9998  -2.8865  -2.8844  -2.8749  -2.8708  -2.8669
    -2.8640  -2.8587  -2.8546  -2.8479  -2.8413  -2.8404  -2.8308  -2.7017
     1.1033   1.1747   1.2555   1.3039   1.4902   1.5677   2.0523   2.0973
     2.1898   2.2181   2.2725   2.3665   2.5220   2.5591   2.6573   2.6940
     2.7353   2.8122   2.8199   2.8554   2.8840   2.9187   2.9687   2.9786
     2.9967   2.9984   3.0229   3.0517   3.0644   3.1378   3.1803   3.2090
     3.3745   3.5431   3.5870   3.8635

          k = 0.3333 0.3194-0.3410 ( 54300 PWs)   bands (ev):

  -134.7655-134.7655-134.7655-134.7655 -76.4591 -76.4591 -76.4591 -76.4591
   -76.4568 -76.4568 -76.4568 -76.4568 -76.4526 -76.4526 -76.4526 -76.4526
   -55.3429 -55.3429 -55.3429 -55.3429 -55.3283 -55.3283 -55.3283 -55.3283
   -55.3283 -55.3283 -55.3282 -55.3282 -55.3070 -55.3070 -55.3070 -55.3070
   -55.2975 -55.2975 -55.2975 -55.2975 -55.2909 -55.2909 -55.2909 -55.2909
   -55.2909 -55.2909 -55.2909 -55.2909 -55.2892 -55.2892 -55.2892 -55.2892
   -55.2892 -55.2892 -55.2892 -55.2892 -55.1893 -55.1893 -55.1893 -55.1893
   -55.1889 -55.1889 -55.1889 -55.1889 -55.1828 -55.1828 -55.1828 -55.1828
   -55.1828 -55.1828 -55.1827 -55.1827 -55.1823 -55.1823 -55.1823 -55.1823
   -55.1822 -55.1822 -55.1822 -55.1822 -16.0333 -16.0333 -16.0325 -16.0325
   -11.9201 -11.9201 -11.9099 -11.9099 -11.8919 -11.8919 -11.8802 -11.8802
   -11.8339 -11.8339 -11.8337 -11.8337 -11.8323 -11.8323 -11.8321 -11.8321
   -11.8258 -11.8258 -11.8255 -11.8255  -9.4380  -9.4380  -9.3599  -9.3599
    -9.2670  -9.2670  -9.1954  -9.1954  -9.1185  -9.1185  -9.0907  -9.0907
    -3.1700  -3.1700  -2.9526  -2.9526  -2.8844  -2.8844  -2.8709  -2.8709
    -2.8587  -2.8587  -2.8544  -2.8544  -2.8458  -2.8458  -2.8150  -2.8150
     1.1424   1.1424   1.4893   1.4893   1.7480   1.7480   1.8648   1.8648
     2.1109   2.1109   2.2627   2.2627   2.5295   2.5295   2.6088   2.6088
     2.7526   2.7526   2.8371   2.8371   2.8987   2.8987   2.9817   2.9817
     3.0091   3.0091   3.0767   3.0767   3.1326   3.1326   3.1828   3.1828
     3.3925   3.3925   3.6309   3.6309

          k = 0.3333-0.4791 0.0000 ( 54272 PWs)   bands (ev):

  -134.7655-134.7655-134.7655-134.7655 -76.4591 -76.4591 -76.4591 -76.4591
   -76.4568 -76.4568 -76.4568 -76.4568 -76.4526 -76.4526 -76.4526 -76.4526
   -55.3429 -55.3429 -55.3428 -55.3428 -55.3283 -55.3283 -55.3283 -55.3283
   -55.3283 -55.3283 -55.3282 -55.3282 -55.3070 -55.3070 -55.3069 -55.3069
   -55.2975 -55.2975 -55.2974 -55.2974 -55.2909 -55.2909 -55.2909 -55.2909
   -55.2909 -55.2909 -55.2909 -55.2909 -55.2892 -55.2892 -55.2892 -55.2892
   -55.2892 -55.2892 -55.2891 -55.2891 -55.1893 -55.1893 -55.1893 -55.1893
   -55.1889 -55.1889 -55.1889 -55.1889 -55.1828 -55.1828 -55.1828 -55.1828
   -55.1827 -55.1827 -55.1827 -55.1827 -55.1823 -55.1823 -55.1823 -55.1823
   -55.1823 -55.1823 -55.1822 -55.1822 -16.0334 -16.0334 -16.0324 -16.0324
   -11.9314 -11.9314 -11.9089 -11.9089 -11.8915 -11.8915 -11.8701 -11.8701
   -11.8342 -11.8342 -11.8333 -11.8333 -11.8324 -11.8324 -11.8320 -11.8320
   -11.8258 -11.8258 -11.8254 -11.8254  -9.4356  -9.4356  -9.2994  -9.2994
    -9.2789  -9.2789  -9.2360  -9.2360  -9.1866  -9.1866  -9.0361  -9.0361
    -3.2725  -3.2725  -2.8937  -2.8937  -2.8726  -2.8726  -2.8620  -2.8620
    -2.8602  -2.8602  -2.8495  -2.8495  -2.8438  -2.8438  -2.7308  -2.7308
     1.0597   1.0597   1.1995   1.1995   1.3307   1.3307   2.1758   2.1758
     2.2297   2.2297   2.4298   2.4298   2.5722   2.5722   2.7763   2.7763
     2.7817   2.7817   2.8490   2.8490   2.8870   2.8870   2.9380   2.9380
     2.9950   2.9950   2.9965   2.9965   3.0674   3.0674   3.2081   3.2081
     3.4504   3.4504   3.9416   3.9416

          k = 0.3333-0.4791 0.1705 ( 54284 PWs)   bands (ev):

  -134.7655-134.7655-134.7655-134.7655 -76.4591 -76.4591 -76.4591 -76.4591
   -76.4568 -76.4568 -76.4568 -76.4568 -76.4526 -76.4526 -76.4526 -76.4526
   -55.3429 -55.3429 -55.3429 -55.3429 -55.3283 -55.3283 -55.3283 -55.3283
   -55.3283 -55.3283 -55.3282 -55.3282 -55.3070 -55.3070 -55.3069 -55.3069
   -55.2975 -55.2975 -55.2974 -55.2974 -55.2909 -55.2909 -55.2909 -55.2909
   -55.2909 -55.2909 -55.2909 -55.2909 -55.2892 -55.2892 -55.2892 -55.2892
   -55.2892 -55.2892 -55.2892 -55.2892 -55.1893 -55.1893 -55.1893 -55.1893
   -55.1889 -55.1889 -55.1889 -55.1889 -55.1828 -55.1828 -55.1828 -55.1828
   -55.1827 -55.1827 -55.1827 -55.1827 -55.1823 -55.1823 -55.1823 -55.1823
   -55.1822 -55.1822 -55.1822 -55.1822 -16.0333 -16.0333 -16.0325 -16.0325
   -11.9266 -11.9266 -11.9106 -11.9106 -11.8899 -11.8899 -11.8749 -11.8749
   -11.8341 -11.8341 -11.8335 -11.8335 -11.8323 -11.8323 -11.8320 -11.8320
   -11.8258 -11.8258 -11.8255 -11.8255  -9.4253  -9.4253  -9.3468  -9.3468
    -9.2514  -9.2514  -9.2372  -9.2372  -9.1579  -9.1579  -9.0534  -9.0534
    -3.2119  -3.2119  -2.9102  -2.9102  -2.8756  -2.8756  -2.8721  -2.8721
    -2.8619  -2.8619  -2.8490  -2.8490  -2.8409  -2.8409  -2.7912  -2.7912
     1.1992   1.1992   1.2580   1.2580   1.3445   1.3445   2.1949   2.1949
     2.2262   2.2262   2.2988   2.2988   2.5299   2.5299   2.6843   2.6843
     2.7725   2.7725   2.8779   2.8779   2.8916   2.8916   2.9400   2.9400
     2.9917   2.9917   3.0387   3.0387   3.0961   3.0961   3.2066   3.2066
     3.4562   3.4562   3.7462   3.7462

          k = 0.3333-0.4791-0.3410 ( 54332 PWs)   bands (ev):

  -134.7655-134.7655-134.7655-134.7655 -76.4591 -76.4591 -76.4591 -76.4591
   -76.4568 -76.4568 -76.4568 -76.4568 -76.4526 -76.4526 -76.4526 -76.4526
   -55.3429 -55.3429 -55.3429 -55.3429 -55.3283 -55.3283 -55.3283 -55.3283
   -55.3283 -55.3283 -55.3283 -55.3283 -55.3070 -55.3070 -55.3070 -55.3070
   -55.2975 -55.2975 -55.2975 -55.2975 -55.2909 -55.2909 -55.2909 -55.2909
   -55.2909 -55.2909 -55.2909 -55.2909 -55.2892 -55.2892 -55.2892 -55.2892
   -55.2892 -55.2892 -55.2892 -55.2892 -55.1893 -55.1893 -55.1893 -55.1893
   -55.1889 -55.1889 -55.1889 -55.1889 -55.1828 -55.1828 -55.1828 -55.1828
   -55.1828 -55.1828 -55.1828 -55.1828 -55.1823 -55.1823 -55.1823 -55.1823
   -55.1822 -55.1822 -55.1822 -55.1822 -16.0329 -16.0329 -16.0329 -16.0329
   -11.9169 -11.9169 -11.9169 -11.9169 -11.8842 -11.8842 -11.8842 -11.8842
   -11.8338 -11.8338 -11.8338 -11.8338 -11.8322 -11.8322 -11.8322 -11.8322
   -11.8256 -11.8256 -11.8256 -11.8256  -9.3949  -9.3949  -9.3949  -9.3949
    -9.2409  -9.2409  -9.2409  -9.2409  -9.1000  -9.1000  -9.1000  -9.1000
    -3.0551  -3.0551  -3.0551  -3.0551  -2.8759  -2.8759  -2.8759  -2.8759
    -2.8559  -2.8559  -2.8559  -2.8559  -2.8328  -2.8328  -2.8328  -2.8328
     1.2507   1.2507   1.2507   1.2507   1.8065   1.8065   1.8065   1.8065
     2.2321   2.2321   2.2321   2.2321   2.5606   2.5606   2.5606   2.5606
     2.8194   2.8194   2.8194   2.8194   2.9186   2.9186   2.9186   2.9186
     3.0429   3.0429   3.0429   3.0429   3.1667   3.1667   3.1667   3.1667
     3.5234   3.5234   3.5234   3.5234

          k =-0.5000 0.0000 0.0000 ( 54276 PWs)   bands (ev):

  -134.7655-134.7655-134.7655-134.7655 -76.4591 -76.4591 -76.4591 -76.4591
   -76.4568 -76.4568 -76.4568 -76.4568 -76.4526 -76.4526 -76.4526 -76.4526
   -55.3429 -55.3429 -55.3428 -55.3428 -55.3283 -55.3283 -55.3283 -55.3283
   -55.3282 -55.3282 -55.3282 -55.3282 -55.3070 -55.3070 -55.3070 -55.3070
   -55.2975 -55.2975 -55.2975 -55.2975 -55.2909 -55.2909 -55.2909 -55.2909
   -55.2909 -55.2909 -55.2909 -55.2909 -55.2892 -55.2892 -55.2892 -55.2892
   -55.2892 -55.2892 -55.2892 -55.2892 -55.1893 -55.1893 -55.1893 -55.1893
   -55.1889 -55.1889 -55.1888 -55.1888 -55.1828 -55.1828 -55.1828 -55.1828
   -55.1828 -55.1828 -55.1827 -55.1827 -55.1823 -55.1823 -55.1823 -55.1823
   -55.1822 -55.1822 -55.1822 -55.1822 -16.0337 -16.0337 -16.0321 -16.0321
   -11.9241 -11.9241 -11.8988 -11.8988 -11.8987 -11.8987 -11.8804 -11.8804
   -11.8342 -11.8342 -11.8333 -11.8333 -11.8324 -11.8324 -11.8321 -11.8321
   -11.8259 -11.8259 -11.8255 -11.8255  -9.4704  -9.4704  -9.3347  -9.3347
    -9.2770  -9.2770  -9.1538  -9.1538  -9.1478  -9.1478  -9.0826  -9.0826
    -3.2879  -3.2879  -2.9116  -2.9116  -2.8829  -2.8829  -2.8752  -2.8752
    -2.8591  -2.8591  -2.8440  -2.8440  -2.8403  -2.8403  -2.7537  -2.7537
     1.0764   1.0764   1.5911   1.5911   1.7412   1.7412   1.9370   1.9370
     2.0333   2.0333   2.2475   2.2475   2.5163   2.5163   2.6731   2.6731
     2.7452   2.7452   2.8460   2.8460   2.9020   2.9020   2.9885   2.9885
     2.9965   2.9965   3.0480   3.0480   3.1430   3.1430   3.1866   3.1866
     3.2984   3.2984   3.7569   3.7569

          k =-0.5000 0.0000 0.1705 ( 54218 PWs)   bands (ev):

  -134.7655-134.7655-134.7654-134.7654 -76.4591 -76.4591 -76.4591 -76.4591
   -76.4568 -76.4568 -76.4568 -76.4568 -76.4526 -76.4526 -76.4525 -76.4525
   -55.3429 -55.3429 -55.3428 -55.3428 -55.3283 -55.3283 -55.3282 -55.3282
   -55.3282 -55.3282 -55.3282 -55.3282 -55.3070 -55.3070 -55.3069 -55.3069
   -55.2975 -55.2975 -55.2974 -55.2974 -55.2909 -55.2909 -55.2909 -55.2909
   -55.2909 -55.2909 -55.2909 -55.2909 -55.2892 -55.2892 -55.2892 -55.2892
   -55.2892 -55.2892 -55.2891 -55.2891 -55.1893 -55.1893 -55.1893 -55.1893
   -55.1889 -55.1889 -55.1888 -55.1888 -55.1828 -55.1828 -55.1828 -55.1828
   -55.1827 -55.1827 -55.1827 -55.1827 -55.1823 -55.1823 -55.1822 -55.1822
   -55.1822 -55.1822 -55.1822 -55.1822 -16.0336 -16.0336 -16.0322 -16.0322
   -11.9178 -11.9178 -11.8988 -11.8988 -11.8987 -11.8987 -11.8868 -11.8868
   -11.8340 -11.8340 -11.8334 -11.8334 -11.8324 -11.8324 -11.8321 -11.8321
   -11.8258 -11.8258 -11.8255 -11.8255  -9.4602  -9.4602  -9.3803  -9.3803
    -9.2229  -9.2229  -9.1541  -9.1541  -9.1475  -9.1475  -9.1008  -9.1008
    -3.2272  -3.2272  -2.9304  -2.9304  -2.8870  -2.8870  -2.8795  -2.8795
    -2.8549  -2.8549  -2.8449  -2.8449  -2.8403  -2.8403  -2.8171  -2.8171
     1.2764   1.2764   1.6097   1.6097   1.7168   1.7168   1.9388   1.9388
     1.9940   1.9940   2.2099   2.2099   2.5462   2.5462   2.6817   2.6817
     2.7110   2.7110   2.7856   2.7856   2.8813   2.8813   2.9638   2.9638
     3.0456   3.0456   3.0706   3.0706   3.1384   3.1384   3.1820   3.1820
     3.3021   3.3021   3.5399   3.5399

          k =-0.5000 0.0000-0.3410 ( 54256 PWs)   bands (ev):

  -134.7655-134.7655-134.7655-134.7655 -76.4591 -76.4591 -76.4591 -76.4591
   -76.4568 -76.4568 -76.4568 -76.4568 -76.4526 -76.4526 -76.4526 -76.4526
   -55.3429 -55.3429 -55.3428 -55.3428 -55.3283 -55.3283 -55.3283 -55.3283
   -55.3282 -55.3282 -55.3282 -55.3282 -55.3069 -55.3069 -55.3069 -55.3069
   -55.2975 -55.2975 -55.2974 -55.2974 -55.2909 -55.2909 -55.2909 -55.2909
   -55.2909 -55.2909 -55.2909 -55.2909 -55.2892 -55.2892 -55.2892 -55.2892
   -55.2892 -55.2892 -55.2892 -55.2892 -55.1893 -55.1893 -55.1893 -55.1893
   -55.1890 -55.1890 -55.1888 -55.1888 -55.1828 -55.1828 -55.1827 -55.1827
   -55.1827 -55.1827 -55.1827 -55.1827 -55.1823 -55.1823 -55.1823 -55.1823
   -55.1822 -55.1822 -55.1822 -55.1822 -16.0335 -16.0335 -16.0323 -16.0323
   -11.9025 -11.9025 -11.9024 -11.9024 -11.8988 -11.8988 -11.8987 -11.8987
   -11.8338 -11.8338 -11.8338 -11.8338 -11.8322 -11.8322 -11.8322 -11.8322
   -11.8257 -11.8257 -11.8257 -11.8257  -9.4318  -9.4318  -9.4276  -9.4276
    -9.1617  -9.1617  -9.1528  -9.1528  -9.1499  -9.1499  -9.1418  -9.1418
    -3.0783  -3.0783  -3.0628  -3.0628  -2.8890  -2.8890  -2.8843  -2.8843
    -2.8601  -2.8601  -2.8485  -2.8485  -2.8474  -2.8474  -2.8369  -2.8369
     1.6363   1.6363   1.6744   1.6744   1.7008   1.7008   1.7223   1.7223
     2.0516   2.0516   2.0640   2.0640   2.6305   2.6305   2.6500   2.6500
     2.7063   2.7063   2.7079   2.7079   2.8790   2.8790   2.8924   2.8924
     3.0822   3.0822   3.1137   3.1137   3.1228   3.1228   3.1762   3.1762
     3.3290   3.3290   3.3443   3.3443

          k =-0.5000 0.1597 0.0000 ( 54238 PWs)   bands (ev):

  -134.7655-134.7655-134.7654-134.7654 -76.4591 -76.4591 -76.4591 -76.4591
   -76.4568 -76.4568 -76.4568 -76.4568 -76.4526 -76.4526 -76.4525 -76.4525
   -55.3429 -55.3429 -55.3428 -55.3428 -55.3283 -55.3283 -55.3283 -55.3283
   -55.3282 -55.3282 -55.3282 -55.3282 -55.3070 -55.3070 -55.3070 -55.3070
   -55.2975 -55.2975 -55.2975 -55.2975 -55.2909 -55.2909 -55.2909 -55.2909
   -55.2909 -55.2909 -55.2909 -55.2909 -55.2892 -55.2892 -55.2892 -55.2892
   -55.2892 -55.2892 -55.2891 -55.2891 -55.1893 -55.1893 -55.1893 -55.1893
   -55.1889 -55.1889 -55.1888 -55.1888 -55.1828 -55.1828 -55.1828 -55.1828
   -55.1827 -55.1827 -55.1827 -55.1827 -55.1823 -55.1823 -55.1822 -55.1822
   -55.1822 -55.1822 -55.1822 -55.1822 -16.0336 -16.0336 -16.0322 -16.0322
   -11.9269 -11.9269 -11.9030 -11.9030 -11.8960 -11.8960 -11.8761 -11.8761
   -11.8342 -11.8342 -11.8333 -11.8333 -11.8324 -11.8324 -11.8320 -11.8320
   -11.8258 -11.8258 -11.8255 -11.8255  -9.4598  -9.4598  -9.3239  -9.3239
    -9.2774  -9.2774  -9.1868  -9.1868  -9.1598  -9.1598  -9.0609  -9.0609
    -3.2818  -3.2818  -2.9045  -2.9045  -2.8803  -2.8803  -2.8707  -2.8707
    -2.8599  -2.8599  -2.8447  -2.8447  -2.8416  -2.8416  -2.7464  -2.7464
     1.0712   1.0712   1.4117   1.4117   1.5448   1.5448   2.0703   2.0703
     2.2288   2.2288   2.2291   2.2291   2.5470   2.5470   2.7009   2.7009
     2.7689   2.7689   2.8495   2.8495   2.9150   2.9150   2.9751   2.9751
     2.9821   2.9821   3.0170   3.0170   3.1192   3.1192   3.1850   3.1850
     3.3405   3.3405   3.8104   3.8104

          k =-0.5000 0.1597 0.1705 ( 54258 PWs)   bands (ev):

  -134.7655-134.7655-134.7655-134.7655 -76.4591 -76.4591 -76.4591 -76.4591
   -76.4568 -76.4568 -76.4568 -76.4568 -76.4526 -76.4526 -76.4526 -76.4526
   -55.3429 -55.3429 -55.3428 -55.3428 -55.3283 -55.3283 -55.3283 -55.3283
   -55.3282 -55.3282 -55.3282 -55.3282 -55.3070 -55.3070 -55.3069 -55.3069
   -55.2975 -55.2975 -55.2975 -55.2975 -55.2909 -55.2909 -55.2909 -55.2909
   -55.2909 -55.2909 -55.2909 -55.2909 -55.2892 -55.2892 -55.2892 -55.2892
   -55.2892 -55.2892 -55.2891 -55.2891 -55.1893 -55.1893 -55.1893 -55.1893
   -55.1889 -55.1889 -55.1888 -55.1888 -55.1828 -55.1828 -55.1828 -55.1828
   -55.1827 -55.1827 -55.1827 -55.1827 -55.1823 -55.1823 -55.1823 -55.1823
   -55.1822 -55.1822 -55.1822 -55.1822 -16.0335 -16.0335 -16.0323 -16.0323
   -11.9214 -11.9214 -11.9042 -11.9042 -11.8952 -11.8952 -11.8814 -11.8814
   -11.8341 -11.8341 -11.8335 -11.8335 -11.8323 -11.8323 -11.8321 -11.8321
   -11.8258 -11.8258 -11.8255 -11.8255  -9.4496  -9.4496  -9.3703  -9.3703
    -9.2304  -9.2304  -9.1876  -9.1876  -9.1528  -9.1528  -9.0775  -9.0775
    -3.2212  -3.2212  -2.9226  -2.9226  -2.8844  -2.8844  -2.8761  -2.8761
    -2.8554  -2.8554  -2.8467  -2.8467  -2.8421  -2.8421  -2.8086  -2.8086
     1.2657   1.2657   1.4400   1.4400   1.5243   1.5243   2.0740   2.0740
     2.1575   2.1575   2.2154   2.2154   2.5421   2.5421   2.6843   2.6843
     2.7217   2.7217   2.8150   2.8150   2.9134   2.9134   2.9591   2.9591
     3.0297   3.0297   3.0476   3.0476   3.1235   3.1235   3.1799   3.1799
     3.3417   3.3417   3.5973   3.5973

          k =-0.5000 0.1597-0.3410 ( 54272 PWs)   bands (ev):

  -134.7655-134.7655-134.7655-134.7655 -76.4591 -76.4591 -76.4591 -76.4591
   -76.4568 -76.4568 -76.4568 -76.4568 -76.4526 -76.4526 -76.4526 -76.4526
   -55.3429 -55.3429 -55.3429 -55.3429 -55.3283 -55.3283 -55.3283 -55.3283
   -55.3282 -55.3282 -55.3282 -55.3282 -55.3070 -55.3070 -55.3070 -55.3070
   -55.2975 -55.2975 -55.2975 -55.2975 -55.2909 -55.2909 -55.2909 -55.2909
   -55.2909 -55.2909 -55.2909 -55.2909 -55.2892 -55.2892 -55.2892 -55.2892
   -55.2892 -55.2892 -55.2892 -55.2892 -55.1893 -55.1893 -55.1893 -55.1893
   -55.1890 -55.1890 -55.1889 -55.1889 -55.1828 -55.1828 -55.1828 -55.1828
   -55.1827 -55.1827 -55.1827 -55.1827 -55.1823 -55.1823 -55.1823 -55.1823
   -55.1822 -55.1822 -55.1822 -55.1822 -16.0334 -16.0334 -16.0324 -16.0324
   -11.9102 -11.9102 -11.9101 -11.9101 -11.8910 -11.8910 -11.8910 -11.8910
   -11.8338 -11.8338 -11.8338 -11.8338 -11.8322 -11.8322 -11.8322 -11.8322
   -11.8257 -11.8257 -11.8257 -11.8257  -9.4217  -9.4217  -9.4168  -9.4168
    -9.2008  -9.2008  -9.1901  -9.1901  -9.1218  -9.1218  -9.1167  -9.1167
    -3.0717  -3.0717  -3.0567  -3.0567  -2.8855  -2.8855  -2.8801  -2.8801
    -2.8560  -2.8560  -2.8515  -2.8515  -2.8487  -2.8487  -2.8328  -2.8328
     1.4500   1.4500   1.4604   1.4604   1.7502   1.7502   1.8194   1.8194
     2.1361   2.1361   2.1500   2.1500   2.5836   2.5836   2.6153   2.6153
     2.7192   2.7192   2.7746   2.7746   2.9259   2.9259   2.9267   2.9267
     3.0674   3.0674   3.0775   3.0775   3.1391   3.1391   3.1661   3.1661
     3.3704   3.3704   3.3904   3.3904

          k =-0.5000 0.3194 0.0000 ( 54336 PWs)   bands (ev):

  -134.7656-134.7656-134.7655-134.7655 -76.4591 -76.4591 -76.4591 -76.4591
   -76.4568 -76.4568 -76.4568 -76.4568 -76.4526 -76.4526 -76.4526 -76.4526
   -55.3429 -55.3429 -55.3429 -55.3429 -55.3283 -55.3283 -55.3283 -55.3283
   -55.3283 -55.3283 -55.3283 -55.3283 -55.3070 -55.3070 -55.3070 -55.3070
   -55.2975 -55.2975 -55.2975 -55.2975 -55.2909 -55.2909 -55.2909 -55.2909
   -55.2909 -55.2909 -55.2909 -55.2909 -55.2892 -55.2892 -55.2892 -55.2892
   -55.2892 -55.2892 -55.2892 -55.2892 -55.1893 -55.1893 -55.1893 -55.1893
   -55.1890 -55.1890 -55.1889 -55.1889 -55.1828 -55.1828 -55.1828 -55.1828
   -55.1828 -55.1828 -55.1827 -55.1827 -55.1823 -55.1823 -55.1823 -55.1823
   -55.1823 -55.1823 -55.1822 -55.1822 -16.0335 -16.0335 -16.0323 -16.0323
   -11.9314 -11.9314 -11.9089 -11.9089 -11.8915 -11.8915 -11.8701 -11.8701
   -11.8342 -11.8342 -11.8333 -11.8333 -11.8324 -11.8324 -11.8320 -11.8320
   -11.8258 -11.8258 -11.8254 -11.8254  -9.4334  -9.4334  -9.2956  -9.2956
    -9.2792  -9.2792  -9.2384  -9.2384  -9.1906  -9.1906  -9.0362  -9.0362
    -3.2701  -3.2701  -2.8899  -2.8899  -2.8748  -2.8748  -2.8615  -2.8615
    -2.8612  -2.8612  -2.8461  -2.8461  -2.8446  -2.8446  -2.7318  -2.7318
     1.0589   1.0589   1.1962   1.1962   1.3342   1.3342   2.1562   2.1562
     2.2378   2.2378   2.4549   2.4549   2.5830   2.5830   2.7574   2.7574
     2.7767   2.7767   2.8686   2.8686   2.9025   2.9025   2.9498   2.9498
     2.9728   2.9728   2.9818   2.9818   3.0452   3.0452   3.2232   3.2232
     3.4317   3.4317   3.9324   3.9324

          k =-0.5000 0.3194 0.1705 ( 54304 PWs)   bands (ev):

  -134.7655-134.7655-134.7655-134.7655 -76.4591 -76.4591 -76.4591 -76.4591
   -76.4568 -76.4568 -76.4568 -76.4568 -76.4526 -76.4526 -76.4526 -76.4526
   -55.3429 -55.3429 -55.3429 -55.3429 -55.3283 -55.3283 -55.3283 -55.3283
   -55.3283 -55.3283 -55.3283 -55.3283 -55.3070 -55.3070 -55.3070 -55.3070
   -55.2975 -55.2975 -55.2975 -55.2975 -55.2909 -55.2909 -55.2909 -55.2909
   -55.2909 -55.2909 -55.2909 -55.2909 -55.2892 -55.2892 -55.2892 -55.2892
   -55.2892 -55.2892 -55.2892 -55.2892 -55.1893 -55.1893 -55.1893 -55.1893
   -55.1890 -55.1890 -55.1889 -55.1889 -55.1828 -55.1828 -55.1828 -55.1828
   -55.1827 -55.1827 -55.1827 -55.1827 -55.1823 -55.1823 -55.1823 -55.1823
   -55.1823 -55.1823 -55.1822 -55.1822 -16.0334 -16.0334 -16.0324 -16.0324
   -11.9266 -11.9266 -11.9106 -11.9106 -11.8899 -11.8899 -11.8749 -11.8749
   -11.8341 -11.8341 -11.8335 -11.8335 -11.8323 -11.8323 -11.8320 -11.8320
   -11.8258 -11.8258 -11.8255 -11.8255  -9.4232  -9.4232  -9.3443  -9.3443
    -9.2534  -9.2534  -9.2382  -9.2382  -9.1601  -9.1601  -9.0536  -9.0536
    -3.2093  -3.2093  -2.9067  -2.9067  -2.8777  -2.8777  -2.8714  -2.8714
    -2.8587  -2.8587  -2.8481  -2.8481  -2.8411  -2.8411  -2.7946  -2.7946
     1.1989   1.1989   1.2539   1.2539   1.3476   1.3476   2.1676   2.1676
     2.2324   2.2324   2.3223   2.3223   2.5347   2.5347   2.6942   2.6942
     2.7701   2.7701   2.8746   2.8746   2.9209   2.9209   2.9500   2.9500
     2.9920   2.9920   3.0080   3.0080   3.0742   3.0742   3.2144   3.2144
     3.4382   3.4382   3.7336   3.7336

          k =-0.5000 0.3194-0.3410 ( 54304 PWs)   bands (ev):

  -134.7655-134.7655-134.7655-134.7655 -76.4591 -76.4591 -76.4591 -76.4591
   -76.4568 -76.4568 -76.4568 -76.4568 -76.4526 -76.4526 -76.4526 -76.4526
   -55.3429 -55.3429 -55.3429 -55.3429 -55.3283 -55.3283 -55.3283 -55.3283
   -55.3283 -55.3283 -55.3283 -55.3283 -55.3070 -55.3070 -55.3069 -55.3069
   -55.2975 -55.2975 -55.2975 -55.2975 -55.2909 -55.2909 -55.2909 -55.2909
   -55.2909 -55.2909 -55.2909 -55.2909 -55.2892 -55.2892 -55.2892 -55.2892
   -55.2892 -55.2892 -55.2891 -55.2891 -55.1893 -55.1893 -55.1893 -55.1893
   -55.1890 -55.1890 -55.1889 -55.1889 -55.1828 -55.1828 -55.1828 -55.1828
   -55.1827 -55.1827 -55.1827 -55.1827 -55.1823 -55.1823 -55.1823 -55.1823
   -55.1823 -55.1823 -55.1823 -55.1823 -16.0332 -16.0332 -16.0326 -16.0326
   -11.9170 -11.9170 -11.9169 -11.9169 -11.8842 -11.8842 -11.8842 -11.8842
   -11.8338 -11.8338 -11.8338 -11.8338 -11.8322 -11.8322 -11.8322 -11.8322
   -11.8256 -11.8256 -11.8256 -11.8256  -9.3954  -9.3954  -9.3900  -9.3900
    -9.2476  -9.2476  -9.2380  -9.2380  -9.1018  -9.1018  -9.0996  -9.0996
    -3.0573  -3.0573  -3.0465  -3.0465  -2.8778  -2.8778  -2.8721  -2.8721
    -2.8545  -2.8545  -2.8542  -2.8542  -2.8420  -2.8420  -2.8298  -2.8298
     1.2481   1.2481   1.2525   1.2525   1.7758   1.7758   1.8333   1.8333
     2.2271   2.2271   2.2307   2.2307   2.5452   2.5452   2.6025   2.6025
     2.7922   2.7922   2.8621   2.8621   2.9240   2.9240   2.9638   2.9638
     2.9927   2.9927   3.0288   3.0288   3.1474   3.1474   3.1757   3.1757
     3.4945   3.4945   3.5194   3.5194

          k =-0.5000-0.4791 0.0000 ( 54220 PWs)   bands (ev):

  -134.7655-134.7655-134.7654-134.7654 -76.4591 -76.4591 -76.4591 -76.4591
   -76.4568 -76.4568 -76.4568 -76.4568 -76.4526 -76.4526 -76.4526 -76.4526
   -55.3429 -55.3429 -55.3428 -55.3428 -55.3283 -55.3283 -55.3283 -55.3283
   -55.3283 -55.3283 -55.3282 -55.3282 -55.3069 -55.3069 -55.3069 -55.3069
   -55.2974 -55.2974 -55.2974 -55.2974 -55.2909 -55.2909 -55.2909 -55.2909
   -55.2908 -55.2908 -55.2908 -55.2908 -55.2892 -55.2892 -55.2892 -55.2892
   -55.2891 -55.2891 -55.2891 -55.2891 -55.1893 -55.1893 -55.1893 -55.1893
   -55.1889 -55.1889 -55.1889 -55.1889 -55.1828 -55.1828 -55.1827 -55.1827
   -55.1827 -55.1827 -55.1827 -55.1827 -55.1823 -55.1823 -55.1823 -55.1823
   -55.1823 -55.1823 -55.1822 -55.1822 -16.0334 -16.0334 -16.0323 -16.0323
   -11.9333 -11.9333 -11.9112 -11.9112 -11.8896 -11.8896 -11.8678 -11.8678
   -11.8342 -11.8342 -11.8333 -11.8333 -11.8324 -11.8324 -11.8320 -11.8320
   -11.8258 -11.8258 -11.8254 -11.8254  -9.4154  -9.4154  -9.2835  -9.2835
    -9.2714  -9.2714  -9.2620  -9.2620  -9.2160  -9.2160  -9.0272  -9.0272
    -3.2642  -3.2642  -2.8792  -2.8792  -2.8769  -2.8769  -2.8589  -2.8589
    -2.8562  -2.8562  -2.8480  -2.8480  -2.8470  -2.8470  -2.7244  -2.7244
     1.0505   1.0505   1.1130   1.1130   1.2576   1.2576   2.1496   2.1496
     2.2725   2.2725   2.5787   2.5787   2.5944   2.5944   2.7162   2.7162
     2.7897   2.7897   2.8825   2.8825   2.8915   2.8915   2.9428   2.9428
     2.9663   2.9663   2.9753   2.9753   2.9990   2.9990   3.2529   3.2529
     3.4875   3.4875   4.0025   4.0025

          k =-0.5000-0.4791 0.1705 ( 54320 PWs)   bands (ev):

  -134.7656-134.7656-134.7655-134.7655 -76.4591 -76.4591 -76.4591 -76.4591
   -76.4568 -76.4568 -76.4568 -76.4568 -76.4526 -76.4526 -76.4526 -76.4526
   -55.3429 -55.3429 -55.3429 -55.3429 -55.3283 -55.3283 -55.3283 -55.3283
   -55.3283 -55.3283 -55.3282 -55.3282 -55.3070 -55.3070 -55.3070 -55.3070
   -55.2975 -55.2975 -55.2975 -55.2975 -55.2909 -55.2909 -55.2909 -55.2909
   -55.2909 -55.2909 -55.2909 -55.2909 -55.2892 -55.2892 -55.2892 -55.2892
   -55.2892 -55.2892 -55.2892 -55.2892 -55.1893 -55.1893 -55.1893 -55.1893
   -55.1889 -55.1889 -55.1889 -55.1889 -55.1828 -55.1828 -55.1828 -55.1828
   -55.1828 -55.1828 -55.1827 -55.1827 -55.1823 -55.1823 -55.1823 -55.1823
   -55.1822 -55.1822 -55.1822 -55.1822 -16.0333 -16.0333 -16.0325 -16.0325
   -11.9287 -11.9287 -11.9131 -11.9131 -11.8878 -11.8878 -11.8724 -11.8724
   -11.8341 -11.8341 -11.8335 -11.8335 -11.8323 -11.8323 -11.8320 -11.8320
   -11.8258 -11.8258 -11.8255 -11.8255  -9.4048  -9.4048  -9.3238  -9.3238
    -9.2708  -9.2708  -9.2675  -9.2675  -9.1631  -9.1631  -9.0452  -9.0452
    -3.2034  -3.2034  -2.8982  -2.8982  -2.8745  -2.8745  -2.8692  -2.8692
    -2.8621  -2.8621  -2.8454  -2.8454  -2.8419  -2.8419  -2.7879  -2.7879
     1.1299   1.1299   1.1917   1.1917   1.3134   1.3134   2.1800   2.1800
     2.2529   2.2529   2.3583   2.3583   2.5708   2.5708   2.6805   2.6805
     2.8212   2.8212   2.8675   2.8675   2.9180   2.9180   2.9349   2.9349
     2.9689   2.9689   2.9914   2.9914   3.0565   3.0565   3.2373   3.2373
     3.5006   3.5006   3.8116   3.8116

          k =-0.5000-0.4791-0.3410 ( 54296 PWs)   bands (ev):

  -134.7655-134.7655-134.7655-134.7655 -76.4591 -76.4591 -76.4591 -76.4591
   -76.4568 -76.4568 -76.4568 -76.4568 -76.4526 -76.4526 -76.4526 -76.4526
   -55.3429 -55.3429 -55.3429 -55.3429 -55.3283 -55.3283 -55.3283 -55.3283
   -55.3282 -55.3282 -55.3282 -55.3282 -55.3070 -55.3070 -55.3070 -55.3070
   -55.2975 -55.2975 -55.2975 -55.2975 -55.2909 -55.2909 -55.2909 -55.2909
   -55.2909 -55.2909 -55.2909 -55.2909 -55.2892 -55.2892 -55.2892 -55.2892
   -55.2892 -55.2892 -55.2892 -55.2892 -55.1893 -55.1893 -55.1893 -55.1893
   -55.1889 -55.1889 -55.1889 -55.1889 -55.1828 -55.1828 -55.1828 -55.1828
   -55.1827 -55.1827 -55.1827 -55.1827 -55.1823 -55.1823 -55.1823 -55.1823
   -55.1822 -55.1822 -55.1822 -55.1822 -16.0329 -16.0329 -16.0329 -16.0329
   -11.9194 -11.9194 -11.9194 -11.9194 -11.8817 -11.8817 -11.8817 -11.8817
   -11.8338 -11.8338 -11.8338 -11.8338 -11.8322 -11.8322 -11.8322 -11.8322
   -11.8256 -11.8256 -11.8256 -11.8256  -9.3733  -9.3733  -9.3733  -9.3733
    -9.2694  -9.2694  -9.2694  -9.2694  -9.0947  -9.0947  -9.0947  -9.0947
    -3.0460  -3.0460  -3.0460  -3.0460  -2.8714  -2.8714  -2.8714  -2.8714
    -2.8545  -2.8545  -2.8545  -2.8545  -2.8330  -2.8330  -2.8330  -2.8330
     1.1714   1.1714   1.1714   1.1714   1.8079   1.8079   1.8079   1.8079
     2.2457   2.2457   2.2457   2.2457   2.5839   2.5839   2.5839   2.5839
     2.8797   2.8797   2.8797   2.8797   2.9117   2.9117   2.9117   2.9117
     2.9796   2.9796   2.9796   2.9796   3.1709   3.1709   3.1709   3.1709
     3.5856   3.5856   3.5856   3.5856

     highest occupied level (ev):     4.5800

!    total energy              =   -5116.27804095 Ry
     estimated scf accuracy    <          8.2E-09 Ry

     The total energy is the sum of the following terms:
     one-electron contribution =   -3888.38715011 Ry
     hartree contribution      =    1893.26035345 Ry
     xc contribution           =    -861.54268575 Ry
     ewald contribution        =   -2259.60855854 Ry

     convergence has been achieved in  11 iterations

     Forces acting on atoms (cartesian axes, Ry/au):

     atom    1 type  1   force =    -0.00068226    0.00023887    0.00000000
     atom    2 type  1   force =    -0.00068226   -0.00023887   -0.00000000
     atom    3 type  1   force =     0.00068226    0.00023887    0.00000000
     atom    4 type  1   force =     0.00068226   -0.00023887    0.00000000
     atom    5 type  2   force =     0.00000000    0.00000000    0.00000000
     atom    6 type  2   force =     0.00000000   -0.00000000    0.00000000
     atom    7 type  2   force =     0.00000000    0.00000000    0.00000000
     atom    8 type  2   force =    -0.00000000   -0.00000000    0.00000000
     atom    9 type  3   force =     0.00133113   -0.00054527    0.00000000
     atom   10 type  3   force =     0.00133113    0.00054527   -0.00000000
     atom   11 type  3   force =     0.00076318   -0.00070270    0.00088969
     atom   12 type  3   force =    -0.00076318    0.00070270   -0.00088969
     atom   13 type  3   force =     0.00076318    0.00070270   -0.00088969
     atom   14 type  3   force =    -0.00076318   -0.00070270    0.00088969
     atom   15 type  3   force =     0.00076318    0.00070270    0.00088969
     atom   16 type  3   force =    -0.00076318   -0.00070270   -0.00088969
     atom   17 type  3   force =    -0.00076318    0.00070270    0.00088969
     atom   18 type  3   force =     0.00076318   -0.00070270   -0.00088969
     atom   19 type  3   force =    -0.00133113   -0.00054527    0.00000000
     atom   20 type  3   force =    -0.00133113    0.00054527   -0.00000000

     Total force =     0.005031     Total SCF correction =     0.000065


     Computing stress (Cartesian axis) and pressure

          total   stress  (Ry/bohr**3)                   (kbar)     P=        0.20
   0.00000335   0.00000000   0.00000000            0.49        0.00        0.00
   0.00000000   0.00000356   0.00000000            0.00        0.52        0.00
   0.00000000   0.00000000  -0.00000274            0.00        0.00       -0.40


     Writing output data file ./cspbbr3_ecut70.save/

     init_run     :    459.41s CPU    937.67s WALL (       1 calls)
     electrons    :  17103.95s CPU  23432.67s WALL (       1 calls)
     forces       :    207.57s CPU    207.83s WALL (       1 calls)
     stress       :   1748.88s CPU   1755.65s WALL (       1 calls)

     Called by init_run:
     wfcinit      :    443.94s CPU    906.44s WALL (       1 calls)
     potinit      :      4.83s CPU      9.82s WALL (       1 calls)
     hinit0       :     10.02s CPU     20.12s WALL (       1 calls)

     Called by electrons:
     c_bands      :  15413.75s CPU  21094.54s WALL (      12 calls)
     sum_band     :   1683.53s CPU   2328.96s WALL (      12 calls)
     v_of_rho     :      5.80s CPU      8.20s WALL (      12 calls)
     mix_rho      :      1.03s CPU      1.41s WALL (      12 calls)

     Called by c_bands:
     init_us_2    :    128.45s CPU    177.33s WALL (    1296 calls)
     cegterg      :  14212.33s CPU  19446.08s WALL (     576 calls)

     Called by *egterg:
     cdiaghg      :    175.10s CPU    235.01s WALL (    2386 calls)
     h_psi        :  10835.80s CPU  15056.91s WALL (    2482 calls)
     g_psi        :     50.48s CPU     67.82s WALL (    1858 calls)

     Called by h_psi:
     h_psi:calbec :   1479.93s CPU   2029.45s WALL (    2482 calls)
     vloc_psi     :   7876.69s CPU  10936.91s WALL (    2482 calls)
     add_vuspsi   :   1446.21s CPU   1981.31s WALL (    2482 calls)

     General routines
     calbec       :   1697.29s CPU   2246.77s WALL (    2722 calls)
     fft          :      3.58s CPU      4.92s WALL (     145 calls)
     ffts         :      0.33s CPU      0.50s WALL (      12 calls)
     fftw         :   8325.94s CPU  11549.07s WALL (  584098 calls)

     Parallel routines
     fft_scatt_xy :    940.95s CPU   1264.87s WALL (  584255 calls)
     fft_scatt_yz :   1538.81s CPU   2107.07s WALL (  584255 calls)

     PWSCF        :      5h25m CPU      7h19m WALL


   This run was terminated on:  21: 1:34  25Jul2026            

=------------------------------------------------------------------------------=
   JOB DONE.
=------------------------------------------------------------------------------=
