
     Program PWSCF v.6.7MaX starts on 25Jul2026 at 13:41:49 

     This program is part of the open-source Quantum ESPRESSO suite
     for quantum simulation of materials; please cite
         "P. Giannozzi et al., J. Phys.:Condens. Matter 21 395502 (2009);
         "P. Giannozzi et al., J. Phys.:Condens. Matter 29 465901 (2017);
          URL http://www.quantum-espresso.org", 
     in publications or presentations arising from this work. More details at
     http://www.quantum-espresso.org/quote

     Parallel version (MPI), running on     2 processors

     MPI processes distributed on     1 nodes
     R & G space division:  proc/nbgrp/npool/nimage =       2
     Reading input from bulk_kpoints332.in

     Current dimensions of program PWSCF are:
     Max number of different atomic species (ntypx) = 10
     Max number of k-points (npk) =  40000
     Max angular momentum in pseudopotentials (lmaxx) =  3
     Message from routine read_pp_mesh:
     mesh size missing, using the one in header
     Message from routine read_pp_mesh:
     mesh size missing, using the one in header
     Message from routine read_pp_mesh:
     mesh size missing, using the one in header

     Subspace diagonalization in iterative solution of the eigenvalue problem:
     a serial algorithm will be used

     Message from routine setup:
     using ibrav=0 with symmetry is DISCOURAGED, use correct ibrav instead

     Parallelization info
     --------------------
     sticks:   dense  smooth     PW     G-vecs:    dense   smooth      PW
     Min        2718    2718    717               217154   217154   29527
     Max        2719    2719    718               217157   217157   29532
     Sum        5437    5437   1435               434311   434311   59059



     bravais-lattice index     =            0
     lattice parameter (alat)  =      15.3088  a.u.
     unit-cell volume          =    5489.9762 (a.u.)^3
     number of atoms/cell      =           20
     number of atomic types    =            3
     number of electrons       =       328.00
     number of Kohn-Sham states=          164
     kinetic-energy cutoff     =      70.0000  Ry
     charge density cutoff     =     280.0000  Ry
     scf convergence threshold =      1.0E-08
     mixing beta               =       0.3000
     number of iterations used =            8  plain     mixing
     Exchange-correlation= PBE
                           (   1   4   3   4   0   0   0)

     celldm(1)=  15.308820  celldm(2)=   0.000000  celldm(3)=   0.000000
     celldm(4)=   0.000000  celldm(5)=   0.000000  celldm(6)=   0.000000

     crystal axes: (cart. coord. in units of alat)
               a(1) = (   1.000000   0.000000   0.000000 )  
               a(2) = (   0.000000   1.043546   0.000000 )  
               a(3) = (   0.000000   0.000000   1.466337 )  

     reciprocal axes: (cart. coord. in units 2 pi/alat)
               b(1) = (  1.000000  0.000000  0.000000 )  
               b(2) = (  0.000000  0.958271  0.000000 )  
               b(3) = (  0.000000  0.000000  0.681971 )  


     PseudoPot. # 1 for Cs read from file:
     /usr/share/espresso/pseudo/Cs.upf
     MD5 check sum: d01c53d012be9123745781bcb8b00a26
     Pseudo is Norm-conserving + core correction, Zval =  9.0
     Generated using ONCVPSP code by D. R. Hamann
     Using radial grid of 2414 points,  8 beta functions with: 
                l(1) =   0
                l(2) =   0
                l(3) =   1
                l(4) =   1
                l(5) =   2
                l(6) =   2
                l(7) =   3
                l(8) =   3

     PseudoPot. # 2 for Pb read from file:
     /usr/share/espresso/pseudo/Pb.upf
     MD5 check sum: ef32195dce39f3be2bd8d55c45026041
     Pseudo is Norm-conserving + core correction, Zval = 22.0
     Generated using ONCVPSP code by D. R. Hamann
     Using radial grid of 1692 points,  7 beta functions with: 
                l(1) =   0
                l(2) =   0
                l(3) =   1
                l(4) =   1
                l(5) =   2
                l(6) =   2
                l(7) =   3

     PseudoPot. # 3 for Br read from file:
     /usr/share/espresso/pseudo/Br.upf
     MD5 check sum: 89331df975851c81b2ee53e8f046c6dd
     Pseudo is Norm-conserving + core correction, Zval = 17.0
     Generated using ONCVPSP code by D. R. Hamann
     Using radial grid of 1098 points,  6 beta functions with: 
                l(1) =   0
                l(2) =   0
                l(3) =   1
                l(4) =   1
                l(5) =   2
                l(6) =   2

     atomic species   valence    mass     pseudopotential
        Cs             9.00   132.90545     Cs( 1.00)
        Pb            22.00   207.20000     Pb( 1.00)
        Br            17.00    79.90400     Br( 1.00)

      8 Sym. Ops., with inversion, found ( 6 have fractional translation)



   Cartesian axes

     site n.     atom                  positions (alat units)
         1           Cs  tau(   1) = (   0.5194521   0.4589896   0.3665843  )
         2           Cs  tau(   2) = (   0.0194521   0.0627833   1.0997528  )
         3           Cs  tau(   3) = (   0.9805479   0.9807625   0.3665843  )
         4           Cs  tau(   4) = (   0.4805479   0.5845563   1.0997528  )
         5           Pb  tau(   5) = (   0.5000000   0.0000000   0.7331685  )
         6           Pb  tau(   6) = (   0.0000000   0.5217729   0.0000000  )
         7           Pb  tau(   7) = (   0.0000000   0.5217729   0.7331685  )
         8           Pb  tau(   8) = (   0.5000000   0.0000000   0.0000000  )
         9           Br  tau(   9) = (   0.5596655   1.0370139   1.0997528  )
        10           Br  tau(  10) = (   0.0596655   0.5283050   0.3665843  )
        11           Br  tau(  11) = (   0.8027919   0.2097759   0.0464848  )
        12           Br  tau(  12) = (   0.1972081   0.8337700   1.4198523  )
        13           Br  tau(  13) = (   0.3027919   0.3119971   1.4198523  )
        14           Br  tau(  14) = (   0.6972081   0.7315488   0.0464848  )
        15           Br  tau(  15) = (   0.3027919   0.3119971   0.7796533  )
        16           Br  tau(  16) = (   0.6972081   0.7315488   0.6866838  )
        17           Br  tau(  17) = (   0.1972081   0.8337700   0.7796533  )
        18           Br  tau(  18) = (   0.8027919   0.2097759   0.6866838  )
        19           Br  tau(  19) = (   0.9403345   0.5152409   1.0997528  )
        20           Br  tau(  20) = (   0.4403345   0.0065320   0.3665843  )

     number of k points=     8
                       cart. coord. in units 2pi/alat
        k(    1) = (   0.0000000   0.0000000   0.0000000), wk =   0.1111111
        k(    2) = (   0.0000000   0.0000000  -0.3409857), wk =   0.1111111
        k(    3) = (   0.0000000   0.3194237   0.0000000), wk =   0.2222222
        k(    4) = (   0.0000000   0.3194237  -0.3409857), wk =   0.2222222
        k(    5) = (   0.3333333   0.0000000   0.0000000), wk =   0.2222222
        k(    6) = (   0.3333333   0.0000000  -0.3409857), wk =   0.2222222
        k(    7) = (   0.3333333   0.3194237   0.0000000), wk =   0.4444444
        k(    8) = (   0.3333333   0.3194237  -0.3409857), wk =   0.4444444

     Dense  grid:   434311 G-vectors     FFT dimensions: (  90,  90, 120)

     Estimated max dynamical RAM per process >       1.19 GB

     Estimated total dynamical RAM >       2.38 GB

     Initial potential from superposition of free atoms

     starting charge  327.83857, renormalised to  328.00000
     Starting wfcs are  180 randomized atomic wfcs

     total cpu time spent up to now is      155.4 secs

     Self-consistent Calculation

     iteration #  1     ecut=    70.00 Ry     beta= 0.30
     Davidson diagonalization with overlap
     ethr =  1.00E-02,  avg # of iterations =  2.0

     Threshold (ethr) on eigenvalues was too large:
     Diagonalizing with lowered threshold

     Davidson diagonalization with overlap
     ethr =  2.09E-04,  avg # of iterations =  3.0

     total cpu time spent up to now is      988.7 secs

     total energy              =   -5116.22564280 Ry
     estimated scf accuracy    <       0.61255877 Ry

     iteration #  2     ecut=    70.00 Ry     beta= 0.30
     Davidson diagonalization with overlap
     ethr =  1.87E-04,  avg # of iterations =  2.0

     total cpu time spent up to now is     1406.3 secs

     total energy              =   -5116.25251594 Ry
     estimated scf accuracy    <       0.10024635 Ry

     iteration #  3     ecut=    70.00 Ry     beta= 0.30
     Davidson diagonalization with overlap
     ethr =  3.06E-05,  avg # of iterations =  3.2

     total cpu time spent up to now is     1845.7 secs

     total energy              =   -5116.27346464 Ry
     estimated scf accuracy    <       0.01173347 Ry

     iteration #  4     ecut=    70.00 Ry     beta= 0.30
     Davidson diagonalization with overlap
     ethr =  3.58E-06,  avg # of iterations =  2.0

     total cpu time spent up to now is     2294.5 secs

     total energy              =   -5116.27551214 Ry
     estimated scf accuracy    <       0.00125180 Ry

     iteration #  5     ecut=    70.00 Ry     beta= 0.30
     Davidson diagonalization with overlap
     ethr =  3.82E-07,  avg # of iterations =  4.5

     total cpu time spent up to now is     2752.7 secs

     total energy              =   -5116.27584762 Ry
     estimated scf accuracy    <       0.00022084 Ry

     iteration #  6     ecut=    70.00 Ry     beta= 0.30
     Davidson diagonalization with overlap
     ethr =  6.73E-08,  avg # of iterations =  4.0

     total cpu time spent up to now is     3257.2 secs

     total energy              =   -5116.27587078 Ry
     estimated scf accuracy    <       0.00012906 Ry

     iteration #  7     ecut=    70.00 Ry     beta= 0.30
     Davidson diagonalization with overlap
     ethr =  3.93E-08,  avg # of iterations =  2.8

     total cpu time spent up to now is     3704.2 secs

     total energy              =   -5116.27590965 Ry
     estimated scf accuracy    <       0.00000623 Ry

     iteration #  8     ecut=    70.00 Ry     beta= 0.30
     Davidson diagonalization with overlap
     ethr =  1.90E-09,  avg # of iterations =  4.0

     total cpu time spent up to now is     4151.6 secs

     total energy              =   -5116.27591040 Ry
     estimated scf accuracy    <       0.00000150 Ry

     iteration #  9     ecut=    70.00 Ry     beta= 0.30
     Davidson diagonalization with overlap
     ethr =  4.57E-10,  avg # of iterations =  4.0

     total cpu time spent up to now is     4641.7 secs

     total energy              =   -5116.27591102 Ry
     estimated scf accuracy    <       0.00000006 Ry

     iteration # 10     ecut=    70.00 Ry     beta= 0.30
     Davidson diagonalization with overlap
     ethr =  1.92E-11,  avg # of iterations =  4.9

     total cpu time spent up to now is     5214.0 secs

     total energy              =   -5116.27591105 Ry
     estimated scf accuracy    <       0.00000004 Ry

     iteration # 11     ecut=    70.00 Ry     beta= 0.30
     Davidson diagonalization with overlap
     ethr =  1.19E-11,  avg # of iterations =  2.2

     total cpu time spent up to now is     5624.4 secs

     End of self-consistent calculation

          k = 0.0000 0.0000 0.0000 ( 54325 PWs)   bands (ev):

  -134.7698-134.7698-134.7696-134.7696 -76.4637 -76.4637 -76.4637 -76.4637
   -76.4611 -76.4611 -76.4611 -76.4611 -76.4565 -76.4565 -76.4565 -76.4565
   -55.3290 -55.3290 -55.3290 -55.3290 -55.3289 -55.3289 -55.3289 -55.3288
   -55.3284 -55.3284 -55.3283 -55.3283 -55.2933 -55.2933 -55.2933 -55.2933
   -55.2918 -55.2917 -55.2917 -55.2917 -55.2917 -55.2917 -55.2917 -55.2916
   -55.2900 -55.2900 -55.2899 -55.2899 -55.2899 -55.2898 -55.2898 -55.2898
   -55.2837 -55.2837 -55.2836 -55.2836 -55.1840 -55.1839 -55.1839 -55.1839
   -55.1839 -55.1838 -55.1838 -55.1838 -55.1835 -55.1835 -55.1834 -55.1834
   -55.1834 -55.1834 -55.1834 -55.1833 -55.1785 -55.1785 -55.1785 -55.1785
   -55.1782 -55.1781 -55.1781 -55.1781 -16.0344 -16.0330 -16.0312 -16.0303
   -11.9392 -11.9345 -11.9344 -11.9189 -11.8975 -11.8739 -11.8688 -11.8688
   -11.8394 -11.8388 -11.8385 -11.8380 -11.8373 -11.8369 -11.8363 -11.8359
   -11.8308 -11.8304 -11.8295 -11.8292  -9.5741  -9.4171  -9.2735  -9.2689
    -9.2649  -9.2636  -9.2528  -9.2472  -9.2242  -9.0341  -9.0339  -9.0323
    -3.7114  -3.2504  -2.9092  -2.8993  -2.8940  -2.8878  -2.8735  -2.8731
    -2.8691  -2.8616  -2.8554  -2.8450  -2.8424  -2.8277  -2.7616  -2.1819
     0.9906   1.0081   1.0232   1.1057   1.1216   1.1997   2.1285   2.3294
     2.3780   2.4001   2.4085   2.5172   2.6358   2.7157   2.7339   2.7454
     2.7995   2.8149   2.8454   2.8536   2.8938   2.8988   2.9137   2.9271
     2.9428   3.0549   3.1044   3.1193   3.1652   3.1753   3.2413   3.2783
     3.4118   3.5653   4.0089   4.5805

          k = 0.0000 0.0000-0.3410 ( 54388 PWs)   bands (ev):

  -134.7698-134.7698-134.7697-134.7697 -76.4637 -76.4637 -76.4637 -76.4637
   -76.4611 -76.4611 -76.4611 -76.4611 -76.4565 -76.4565 -76.4565 -76.4565
   -55.3290 -55.3290 -55.3290 -55.3290 -55.3289 -55.3289 -55.3289 -55.3289
   -55.3284 -55.3284 -55.3283 -55.3283 -55.2933 -55.2933 -55.2933 -55.2933
   -55.2918 -55.2918 -55.2917 -55.2917 -55.2917 -55.2917 -55.2917 -55.2917
   -55.2900 -55.2900 -55.2899 -55.2899 -55.2899 -55.2899 -55.2899 -55.2899
   -55.2837 -55.2837 -55.2837 -55.2837 -55.1839 -55.1839 -55.1839 -55.1839
   -55.1839 -55.1839 -55.1839 -55.1839 -55.1834 -55.1834 -55.1834 -55.1834
   -55.1834 -55.1834 -55.1834 -55.1834 -55.1785 -55.1785 -55.1785 -55.1785
   -55.1781 -55.1781 -55.1781 -55.1781 -16.0337 -16.0337 -16.0307 -16.0307
   -11.9344 -11.9344 -11.9185 -11.9185 -11.8966 -11.8966 -11.8688 -11.8688
   -11.8390 -11.8390 -11.8384 -11.8384 -11.8371 -11.8371 -11.8361 -11.8361
   -11.8306 -11.8306 -11.8294 -11.8294  -9.5215  -9.5215  -9.2692  -9.2692
    -9.2503  -9.2503  -9.2436  -9.2436  -9.1249  -9.1249  -9.0332  -9.0332
    -3.4973  -3.4973  -2.9009  -2.9009  -2.8913  -2.8913  -2.8679  -2.8679
    -2.8608  -2.8608  -2.8565  -2.8565  -2.8466  -2.8466  -2.5115  -2.5115
     1.0475   1.0475   1.0704   1.0704   1.7796   1.7796   1.9349   1.9349
     2.2465   2.2465   2.4579   2.4579   2.4825   2.4825   2.7439   2.7439
     2.7977   2.7977   2.8763   2.8763   2.9126   2.9126   2.9461   2.9461
     3.0414   3.0414   3.0720   3.0720   3.1459   3.1459   3.1593   3.1593
     3.3920   3.3920   4.1356   4.1356

          k = 0.0000 0.3194 0.0000 ( 54318 PWs)   bands (ev):

  -134.7697-134.7697-134.7697-134.7697 -76.4637 -76.4637 -76.4637 -76.4637
   -76.4611 -76.4611 -76.4611 -76.4611 -76.4565 -76.4565 -76.4565 -76.4565
   -55.3290 -55.3290 -55.3289 -55.3289 -55.3289 -55.3289 -55.3289 -55.3289
   -55.3283 -55.3283 -55.3283 -55.3283 -55.2933 -55.2933 -55.2933 -55.2933
   -55.2918 -55.2918 -55.2918 -55.2917 -55.2917 -55.2917 -55.2917 -55.2917
   -55.2900 -55.2900 -55.2899 -55.2899 -55.2899 -55.2899 -55.2899 -55.2899
   -55.2838 -55.2837 -55.2837 -55.2837 -55.1839 -55.1839 -55.1839 -55.1839
   -55.1839 -55.1839 -55.1839 -55.1838 -55.1835 -55.1834 -55.1834 -55.1834
   -55.1834 -55.1834 -55.1834 -55.1833 -55.1785 -55.1785 -55.1785 -55.1785
   -55.1781 -55.1781 -55.1781 -55.1781 -16.0336 -16.0323 -16.0320 -16.0310
   -11.9341 -11.9239 -11.9187 -11.9186 -11.8915 -11.8858 -11.8858 -11.8797
   -11.8393 -11.8390 -11.8384 -11.8381 -11.8371 -11.8366 -11.8366 -11.8362
   -11.8305 -11.8301 -11.8299 -11.8296  -9.5279  -9.4051  -9.3814  -9.3054
    -9.2681  -9.2656  -9.1987  -9.1936  -9.1214  -9.0893  -9.0862  -9.0537
    -3.5133  -3.0671  -3.0551  -2.9113  -2.8851  -2.8846  -2.8786  -2.8703
    -2.8662  -2.8578  -2.8508  -2.8457  -2.8434  -2.8350  -2.8324  -2.5081
     1.0384   1.1339   1.3048   1.4200   1.5151   1.5406   2.0168   2.1540
     2.1690   2.2806   2.2879   2.3135   2.4538   2.5631   2.5936   2.6375
     2.8061   2.8276   2.8348   2.8535   2.8902   2.8926   2.9427   2.9538
     3.0202   3.0403   3.0423   3.0750   3.1343   3.1406   3.2179   3.2411
     3.4185   3.5241   3.6667   4.0576

          k = 0.0000 0.3194-0.3410 ( 54288 PWs)   bands (ev):

  -134.7697-134.7697-134.7697-134.7697 -76.4637 -76.4637 -76.4637 -76.4637
   -76.4611 -76.4611 -76.4611 -76.4611 -76.4565 -76.4565 -76.4565 -76.4565
   -55.3290 -55.3290 -55.3289 -55.3289 -55.3289 -55.3289 -55.3289 -55.3289
   -55.3283 -55.3283 -55.3283 -55.3283 -55.2933 -55.2933 -55.2933 -55.2933
   -55.2917 -55.2917 -55.2917 -55.2917 -55.2917 -55.2917 -55.2917 -55.2917
   -55.2900 -55.2900 -55.2899 -55.2899 -55.2899 -55.2899 -55.2898 -55.2898
   -55.2837 -55.2837 -55.2837 -55.2837 -55.1839 -55.1839 -55.1839 -55.1839
   -55.1839 -55.1839 -55.1839 -55.1839 -55.1834 -55.1834 -55.1834 -55.1834
   -55.1834 -55.1834 -55.1834 -55.1834 -55.1785 -55.1785 -55.1785 -55.1785
   -55.1781 -55.1781 -55.1781 -55.1781 -16.0329 -16.0329 -16.0315 -16.0315
   -11.9186 -11.9186 -11.9129 -11.9129 -11.9020 -11.9020 -11.8858 -11.8858
   -11.8389 -11.8389 -11.8386 -11.8386 -11.8369 -11.8369 -11.8364 -11.8364
   -11.8303 -11.8303 -11.8297 -11.8297  -9.4802  -9.4802  -9.3754  -9.3754
    -9.1967  -9.1967  -9.1729  -9.1729  -9.1346  -9.1346  -9.0878  -9.0878
    -3.2981  -3.2981  -2.9113  -2.9113  -2.8866  -2.8866  -2.8761  -2.8761
    -2.8635  -2.8635  -2.8546  -2.8546  -2.8497  -2.8497  -2.7667  -2.7667
     1.3596   1.3596   1.4505   1.4505   1.8245   1.8245   1.8740   1.8740
     2.0888   2.0888   2.2153   2.2153   2.5320   2.5320   2.5957   2.5957
     2.7118   2.7118   2.7602   2.7602   2.8653   2.8653   2.9031   2.9031
     3.1036   3.1036   3.1255   3.1255   3.1478   3.1478   3.1655   3.1655
     3.4100   3.4100   3.6197   3.6197

          k = 0.3333 0.0000 0.0000 ( 54281 PWs)   bands (ev):

  -134.7698-134.7697-134.7696-134.7696 -76.4637 -76.4637 -76.4637 -76.4637
   -76.4611 -76.4611 -76.4611 -76.4611 -76.4565 -76.4565 -76.4565 -76.4565
   -55.3290 -55.3289 -55.3289 -55.3289 -55.3289 -55.3289 -55.3289 -55.3289
   -55.3284 -55.3283 -55.3283 -55.3282 -55.2934 -55.2933 -55.2933 -55.2933
   -55.2918 -55.2918 -55.2917 -55.2917 -55.2917 -55.2917 -55.2917 -55.2917
   -55.2899 -55.2899 -55.2899 -55.2899 -55.2899 -55.2899 -55.2899 -55.2898
   -55.2837 -55.2837 -55.2837 -55.2837 -55.1839 -55.1839 -55.1839 -55.1839
   -55.1839 -55.1839 -55.1839 -55.1839 -55.1834 -55.1834 -55.1834 -55.1834
   -55.1834 -55.1834 -55.1834 -55.1834 -55.1785 -55.1785 -55.1785 -55.1785
   -55.1782 -55.1782 -55.1781 -55.1780 -16.0336 -16.0326 -16.0316 -16.0309
   -11.9340 -11.9239 -11.9187 -11.9187 -11.8915 -11.8859 -11.8858 -11.8797
   -11.8392 -11.8390 -11.8384 -11.8381 -11.8371 -11.8366 -11.8366 -11.8362
   -11.8305 -11.8301 -11.8299 -11.8296  -9.5251  -9.3960  -9.3774  -9.2925
    -9.2686  -9.2663  -9.2143  -9.2069  -9.1176  -9.0935  -9.0908  -9.0525
    -3.5095  -3.0504  -3.0472  -2.8944  -2.8857  -2.8830  -2.8823  -2.8673
    -2.8661  -2.8653  -2.8563  -2.8476  -2.8414  -2.8383  -2.8322  -2.5068
     1.0378   1.1337   1.2844   1.3982   1.5175   1.5928   1.9629   2.1650
     2.1758   2.2544   2.3048   2.3741   2.4567   2.5559   2.6247   2.6311
     2.8008   2.8150   2.8389   2.8958   2.9248   2.9381   2.9390   2.9609
     2.9820   3.0087   3.0517   3.0636   3.1096   3.1274   3.2238   3.2385
     3.3159   3.4888   3.6359   4.0143

          k = 0.3333 0.0000-0.3410 ( 54302 PWs)   bands (ev):

  -134.7697-134.7697-134.7697-134.7697 -76.4637 -76.4637 -76.4637 -76.4637
   -76.4611 -76.4611 -76.4611 -76.4611 -76.4565 -76.4565 -76.4565 -76.4565
   -55.3290 -55.3290 -55.3289 -55.3289 -55.3289 -55.3289 -55.3289 -55.3289
   -55.3284 -55.3284 -55.3283 -55.3283 -55.2933 -55.2933 -55.2933 -55.2933
   -55.2917 -55.2917 -55.2917 -55.2917 -55.2917 -55.2917 -55.2917 -55.2917
   -55.2899 -55.2899 -55.2899 -55.2899 -55.2899 -55.2899 -55.2899 -55.2899
   -55.2837 -55.2837 -55.2837 -55.2837 -55.1839 -55.1839 -55.1839 -55.1839
   -55.1839 -55.1839 -55.1839 -55.1839 -55.1834 -55.1834 -55.1834 -55.1834
   -55.1834 -55.1834 -55.1834 -55.1834 -55.1785 -55.1785 -55.1785 -55.1785
   -55.1782 -55.1782 -55.1781 -55.1781 -16.0331 -16.0331 -16.0313 -16.0313
   -11.9187 -11.9187 -11.9129 -11.9129 -11.9020 -11.9020 -11.8859 -11.8859
   -11.8388 -11.8388 -11.8386 -11.8386 -11.8369 -11.8369 -11.8364 -11.8364
   -11.8303 -11.8303 -11.8297 -11.8297  -9.4774  -9.4774  -9.3668  -9.3668
    -9.2110  -9.2110  -9.1693  -9.1693  -9.1332  -9.1332  -9.0923  -9.0923
    -3.2938  -3.2938  -2.8962  -2.8962  -2.8864  -2.8864  -2.8758  -2.8758
    -2.8556  -2.8556  -2.8547  -2.8547  -2.8383  -2.8383  -2.7902  -2.7902
     1.3380   1.3380   1.4759   1.4759   1.8105   1.8105   1.8736   1.8736
     2.0538   2.0538   2.2371   2.2371   2.5558   2.5558   2.5995   2.5995
     2.7268   2.7268   2.7968   2.7968   2.9153   2.9153   2.9308   2.9308
     3.0638   3.0638   3.1073   3.1073   3.1332   3.1332   3.1669   3.1669
     3.3366   3.3366   3.5498   3.5498

          k = 0.3333 0.3194 0.0000 ( 54288 PWs)   bands (ev):

  -134.7697-134.7697-134.7697-134.7696 -76.4637 -76.4637 -76.4637 -76.4637
   -76.4611 -76.4611 -76.4611 -76.4611 -76.4565 -76.4565 -76.4565 -76.4565
   -55.3290 -55.3290 -55.3290 -55.3289 -55.3289 -55.3289 -55.3289 -55.3289
   -55.3284 -55.3283 -55.3283 -55.3283 -55.2934 -55.2933 -55.2933 -55.2933
   -55.2918 -55.2917 -55.2917 -55.2917 -55.2917 -55.2917 -55.2917 -55.2917
   -55.2899 -55.2899 -55.2899 -55.2899 -55.2899 -55.2899 -55.2899 -55.2899
   -55.2837 -55.2837 -55.2837 -55.2837 -55.1839 -55.1839 -55.1839 -55.1839
   -55.1839 -55.1839 -55.1839 -55.1838 -55.1835 -55.1834 -55.1834 -55.1834
   -55.1834 -55.1834 -55.1833 -55.1833 -55.1785 -55.1785 -55.1785 -55.1785
   -55.1781 -55.1781 -55.1781 -55.1781 -16.0331 -16.0324 -16.0318 -16.0312
   -11.9380 -11.9312 -11.9179 -11.9043 -11.9042 -11.8894 -11.8811 -11.8725
   -11.8392 -11.8391 -11.8384 -11.8382 -11.8369 -11.8367 -11.8365 -11.8362
   -11.8303 -11.8300 -11.8300 -11.8297  -9.4799  -9.3926  -9.3392  -9.2757
    -9.2688  -9.2682  -9.2602  -9.2262  -9.1818  -9.1402  -9.0555  -9.0261
    -3.3901  -3.1632  -2.9417  -2.8852  -2.8800  -2.8735  -2.8691  -2.8670
    -2.8587  -2.8537  -2.8517  -2.8492  -2.8430  -2.8398  -2.8108  -2.6204
     1.0488   1.0858   1.0867   1.2186   1.4546   1.5888   2.0378   2.1616
     2.1935   2.2039   2.2835   2.5298   2.5409   2.6081   2.7266   2.7324
     2.8071   2.8284   2.8591   2.8641   2.8735   2.9023   2.9258   2.9632
     2.9707   2.9928   2.9960   3.0321   3.0471   3.1186   3.1827   3.2171
     3.3876   3.5292   3.7812   4.0664

          k = 0.3333 0.3194-0.3410 ( 54300 PWs)   bands (ev):

  -134.7697-134.7697-134.7697-134.7697 -76.4637 -76.4637 -76.4637 -76.4637
   -76.4611 -76.4611 -76.4611 -76.4611 -76.4565 -76.4565 -76.4565 -76.4565
   -55.3290 -55.3290 -55.3289 -55.3289 -55.3289 -55.3289 -55.3289 -55.3289
   -55.3283 -55.3283 -55.3283 -55.3283 -55.2933 -55.2933 -55.2933 -55.2933
   -55.2917 -55.2917 -55.2917 -55.2917 -55.2917 -55.2917 -55.2917 -55.2917
   -55.2899 -55.2899 -55.2899 -55.2899 -55.2899 -55.2899 -55.2899 -55.2899
   -55.2837 -55.2837 -55.2837 -55.2837 -55.1839 -55.1839 -55.1839 -55.1839
   -55.1839 -55.1839 -55.1839 -55.1839 -55.1834 -55.1834 -55.1834 -55.1834
   -55.1834 -55.1834 -55.1834 -55.1834 -55.1785 -55.1785 -55.1785 -55.1785
   -55.1781 -55.1781 -55.1781 -55.1781 -16.0326 -16.0326 -16.0317 -16.0317
   -11.9244 -11.9244 -11.9145 -11.9145 -11.8963 -11.8963 -11.8844 -11.8844
   -11.8388 -11.8388 -11.8387 -11.8387 -11.8367 -11.8367 -11.8365 -11.8365
   -11.8302 -11.8302 -11.8299 -11.8299  -9.4355  -9.4355  -9.3556  -9.3556
    -9.2681  -9.2681  -9.1937  -9.1937  -9.1151  -9.1151  -9.0884  -9.0884
    -3.1725  -3.1725  -2.9544  -2.9544  -2.8836  -2.8836  -2.8701  -2.8701
    -2.8579  -2.8579  -2.8537  -2.8537  -2.8453  -2.8453  -2.8152  -2.8152
     1.1413   1.1413   1.4890   1.4890   1.7513   1.7513   1.8685   1.8685
     2.1116   2.1116   2.2646   2.2646   2.5306   2.5306   2.6091   2.6091
     2.7553   2.7553   2.8372   2.8372   2.9023   2.9023   2.9823   2.9823
     3.0102   3.0102   3.0783   3.0783   3.1347   3.1347   3.1848   3.1848
     3.3929   3.3929   3.6302   3.6302

     highest occupied level (ev):     4.5805

!    total energy              =   -5116.27591105 Ry
     estimated scf accuracy    <          7.8E-09 Ry

     The total energy is the sum of the following terms:
     one-electron contribution =   -3888.40176797 Ry
     hartree contribution      =    1893.28140760 Ry
     xc contribution           =    -861.54699214 Ry
     ewald contribution        =   -2259.60855854 Ry

     convergence has been achieved in  11 iterations

     Forces acting on atoms (cartesian axes, Ry/au):

     atom    1 type  1   force =    -0.00071658    0.00023596    0.00000000
     atom    2 type  1   force =    -0.00071658   -0.00023596    0.00000000
     atom    3 type  1   force =     0.00071658    0.00023596    0.00000000
     atom    4 type  1   force =     0.00071658   -0.00023596    0.00000000
     atom    5 type  2   force =     0.00000000    0.00000000    0.00000000
     atom    6 type  2   force =     0.00000000   -0.00000000    0.00000000
     atom    7 type  2   force =     0.00000000    0.00000000    0.00000000
     atom    8 type  2   force =     0.00000000    0.00000000    0.00000000
     atom    9 type  3   force =     0.00183123   -0.00060148    0.00000000
     atom   10 type  3   force =     0.00183123    0.00060148   -0.00000000
     atom   11 type  3   force =     0.00078052   -0.00072831    0.00086369
     atom   12 type  3   force =    -0.00078052    0.00072831   -0.00086369
     atom   13 type  3   force =     0.00078052    0.00072831   -0.00086369
     atom   14 type  3   force =    -0.00078052   -0.00072831    0.00086369
     atom   15 type  3   force =     0.00078052    0.00072831    0.00086369
     atom   16 type  3   force =    -0.00078052   -0.00072831   -0.00086369
     atom   17 type  3   force =    -0.00078052    0.00072831    0.00086369
     atom   18 type  3   force =     0.00078052   -0.00072831   -0.00086369
     atom   19 type  3   force =    -0.00183123   -0.00060148    0.00000000
     atom   20 type  3   force =    -0.00183123    0.00060148   -0.00000000

     Total force =     0.005676     Total SCF correction =     0.000087


     Computing stress (Cartesian axis) and pressure

          total   stress  (Ry/bohr**3)                   (kbar)     P=        0.48
   0.00000386   0.00000000   0.00000000            0.57        0.00        0.00
   0.00000000   0.00000384   0.00000000            0.00        0.56        0.00
   0.00000000   0.00000000   0.00000203            0.00        0.00        0.30


     Writing output data file ./cspbbr3_ecut70.save/

     init_run     :     86.19s CPU    154.90s WALL (       1 calls)
     electrons    :   2704.44s CPU   5469.11s WALL (       1 calls)
     forces       :     45.80s CPU     91.97s WALL (       1 calls)
     stress       :    308.97s CPU    616.89s WALL (       1 calls)

     Called by init_run:
     wfcinit      :     67.36s CPU    132.33s WALL (       1 calls)
     potinit      :      6.62s CPU      9.93s WALL (       1 calls)
     hinit0       :     11.87s CPU     12.27s WALL (       1 calls)

     Called by electrons:
     c_bands      :   2441.28s CPU   4938.36s WALL (      12 calls)
     sum_band     :    256.94s CPU    518.01s WALL (      12 calls)
     v_of_rho     :      5.57s CPU     11.38s WALL (      12 calls)
     mix_rho      :      0.99s CPU      2.05s WALL (      12 calls)

     Called by c_bands:
     init_us_2    :     20.96s CPU     41.99s WALL (     216 calls)
     cegterg      :   2251.28s CPU   4558.22s WALL (      96 calls)

     Called by *egterg:
     cdiaghg      :     28.52s CPU     57.07s WALL (     397 calls)
     h_psi        :   1703.63s CPU   3440.10s WALL (     413 calls)
     g_psi        :      8.24s CPU     16.48s WALL (     309 calls)

     Called by h_psi:
     h_psi:calbec :    238.70s CPU    477.01s WALL (     413 calls)
     vloc_psi     :   1223.04s CPU   2465.51s WALL (     413 calls)
     add_vuspsi   :    236.48s CPU    472.44s WALL (     413 calls)

     General routines
     calbec       :    278.41s CPU    556.44s WALL (     453 calls)
     fft          :      3.25s CPU      6.72s WALL (     145 calls)
     ffts         :      0.30s CPU      0.62s WALL (      12 calls)
     fftw         :   1278.88s CPU   2584.47s WALL (   98132 calls)

     Parallel routines
     fft_scatt_xy :    155.11s CPU    280.26s WALL (   98289 calls)
     fft_scatt_yz :    178.36s CPU    388.31s WALL (   98289 calls)

     PWSCF        :  52m26.94s CPU      1h45m WALL


   This run was terminated on:  15:27:27  25Jul2026            

=------------------------------------------------------------------------------=
   JOB DONE.
=------------------------------------------------------------------------------=
