
     Program PWSCF v.6.7MaX starts on 25Jul2026 at 13:41:38 

     This program is part of the open-source Quantum ESPRESSO suite
     for quantum simulation of materials; please cite
         "P. Giannozzi et al., J. Phys.:Condens. Matter 21 395502 (2009);
         "P. Giannozzi et al., J. Phys.:Condens. Matter 29 465901 (2017);
          URL http://www.quantum-espresso.org", 
     in publications or presentations arising from this work. More details at
     http://www.quantum-espresso.org/quote

     Parallel version (MPI), running on     2 processors

     MPI processes distributed on     1 nodes
     R & G space division:  proc/nbgrp/npool/nimage =       2
     Reading input from bulk_kpoints222.in

     Current dimensions of program PWSCF are:
     Max number of different atomic species (ntypx) = 10
     Max number of k-points (npk) =  40000
     Max angular momentum in pseudopotentials (lmaxx) =  3
     Message from routine read_pp_mesh:
     mesh size missing, using the one in header
     Message from routine read_pp_mesh:
     mesh size missing, using the one in header
     Message from routine read_pp_mesh:
     mesh size missing, using the one in header

     Subspace diagonalization in iterative solution of the eigenvalue problem:
     a serial algorithm will be used

     Message from routine setup:
     using ibrav=0 with symmetry is DISCOURAGED, use correct ibrav instead

     Parallelization info
     --------------------
     sticks:   dense  smooth     PW     G-vecs:    dense   smooth      PW
     Min        2718    2718    733               217154   217154   30313
     Max        2719    2719    734               217157   217157   30316
     Sum        5437    5437   1467               434311   434311   60629



     bravais-lattice index     =            0
     lattice parameter (alat)  =      15.3088  a.u.
     unit-cell volume          =    5489.9762 (a.u.)^3
     number of atoms/cell      =           20
     number of atomic types    =            3
     number of electrons       =       328.00
     number of Kohn-Sham states=          164
     kinetic-energy cutoff     =      70.0000  Ry
     charge density cutoff     =     280.0000  Ry
     scf convergence threshold =      1.0E-08
     mixing beta               =       0.3000
     number of iterations used =            8  plain     mixing
     Exchange-correlation= PBE
                           (   1   4   3   4   0   0   0)

     celldm(1)=  15.308820  celldm(2)=   0.000000  celldm(3)=   0.000000
     celldm(4)=   0.000000  celldm(5)=   0.000000  celldm(6)=   0.000000

     crystal axes: (cart. coord. in units of alat)
               a(1) = (   1.000000   0.000000   0.000000 )  
               a(2) = (   0.000000   1.043546   0.000000 )  
               a(3) = (   0.000000   0.000000   1.466337 )  

     reciprocal axes: (cart. coord. in units 2 pi/alat)
               b(1) = (  1.000000  0.000000  0.000000 )  
               b(2) = (  0.000000  0.958271  0.000000 )  
               b(3) = (  0.000000  0.000000  0.681971 )  


     PseudoPot. # 1 for Cs read from file:
     /usr/share/espresso/pseudo/Cs.upf
     MD5 check sum: d01c53d012be9123745781bcb8b00a26
     Pseudo is Norm-conserving + core correction, Zval =  9.0
     Generated using ONCVPSP code by D. R. Hamann
     Using radial grid of 2414 points,  8 beta functions with: 
                l(1) =   0
                l(2) =   0
                l(3) =   1
                l(4) =   1
                l(5) =   2
                l(6) =   2
                l(7) =   3
                l(8) =   3

     PseudoPot. # 2 for Pb read from file:
     /usr/share/espresso/pseudo/Pb.upf
     MD5 check sum: ef32195dce39f3be2bd8d55c45026041
     Pseudo is Norm-conserving + core correction, Zval = 22.0
     Generated using ONCVPSP code by D. R. Hamann
     Using radial grid of 1692 points,  7 beta functions with: 
                l(1) =   0
                l(2) =   0
                l(3) =   1
                l(4) =   1
                l(5) =   2
                l(6) =   2
                l(7) =   3

     PseudoPot. # 3 for Br read from file:
     /usr/share/espresso/pseudo/Br.upf
     MD5 check sum: 89331df975851c81b2ee53e8f046c6dd
     Pseudo is Norm-conserving + core correction, Zval = 17.0
     Generated using ONCVPSP code by D. R. Hamann
     Using radial grid of 1098 points,  6 beta functions with: 
                l(1) =   0
                l(2) =   0
                l(3) =   1
                l(4) =   1
                l(5) =   2
                l(6) =   2

     atomic species   valence    mass     pseudopotential
        Cs             9.00   132.90545     Cs( 1.00)
        Pb            22.00   207.20000     Pb( 1.00)
        Br            17.00    79.90400     Br( 1.00)

      8 Sym. Ops., with inversion, found ( 6 have fractional translation)



   Cartesian axes

     site n.     atom                  positions (alat units)
         1           Cs  tau(   1) = (   0.5194521   0.4589896   0.3665843  )
         2           Cs  tau(   2) = (   0.0194521   0.0627833   1.0997528  )
         3           Cs  tau(   3) = (   0.9805479   0.9807625   0.3665843  )
         4           Cs  tau(   4) = (   0.4805479   0.5845563   1.0997528  )
         5           Pb  tau(   5) = (   0.5000000   0.0000000   0.7331685  )
         6           Pb  tau(   6) = (   0.0000000   0.5217729   0.0000000  )
         7           Pb  tau(   7) = (   0.0000000   0.5217729   0.7331685  )
         8           Pb  tau(   8) = (   0.5000000   0.0000000   0.0000000  )
         9           Br  tau(   9) = (   0.5596655   1.0370139   1.0997528  )
        10           Br  tau(  10) = (   0.0596655   0.5283050   0.3665843  )
        11           Br  tau(  11) = (   0.8027919   0.2097759   0.0464848  )
        12           Br  tau(  12) = (   0.1972081   0.8337700   1.4198523  )
        13           Br  tau(  13) = (   0.3027919   0.3119971   1.4198523  )
        14           Br  tau(  14) = (   0.6972081   0.7315488   0.0464848  )
        15           Br  tau(  15) = (   0.3027919   0.3119971   0.7796533  )
        16           Br  tau(  16) = (   0.6972081   0.7315488   0.6866838  )
        17           Br  tau(  17) = (   0.1972081   0.8337700   0.7796533  )
        18           Br  tau(  18) = (   0.8027919   0.2097759   0.6866838  )
        19           Br  tau(  19) = (   0.9403345   0.5152409   1.0997528  )
        20           Br  tau(  20) = (   0.4403345   0.0065320   0.3665843  )

     number of k points=     8
                       cart. coord. in units 2pi/alat
        k(    1) = (   0.0000000   0.0000000   0.0000000), wk =   0.2500000
        k(    2) = (   0.0000000   0.0000000  -0.3409857), wk =   0.2500000
        k(    3) = (   0.0000000  -0.4791356   0.0000000), wk =   0.2500000
        k(    4) = (   0.0000000  -0.4791356  -0.3409857), wk =   0.2500000
        k(    5) = (  -0.5000000   0.0000000   0.0000000), wk =   0.2500000
        k(    6) = (  -0.5000000   0.0000000  -0.3409857), wk =   0.2500000
        k(    7) = (  -0.5000000  -0.4791356   0.0000000), wk =   0.2500000
        k(    8) = (  -0.5000000  -0.4791356  -0.3409857), wk =   0.2500000

     Dense  grid:   434311 G-vectors     FFT dimensions: (  90,  90, 120)

     Estimated max dynamical RAM per process >       1.19 GB

     Estimated total dynamical RAM >       2.38 GB

     Initial potential from superposition of free atoms

     starting charge  327.83857, renormalised to  328.00000
     Starting wfcs are  180 randomized atomic wfcs

     total cpu time spent up to now is      137.4 secs

     Self-consistent Calculation

     iteration #  1     ecut=    70.00 Ry     beta= 0.30
     Davidson diagonalization with overlap
     ethr =  1.00E-02,  avg # of iterations =  2.0

     Threshold (ethr) on eigenvalues was too large:
     Diagonalizing with lowered threshold

     Davidson diagonalization with overlap
     ethr =  2.10E-04,  avg # of iterations =  3.0

     total cpu time spent up to now is      981.5 secs

     total energy              =   -5116.22256460 Ry
     estimated scf accuracy    <       0.61508781 Ry

     iteration #  2     ecut=    70.00 Ry     beta= 0.30
     Davidson diagonalization with overlap
     ethr =  1.88E-04,  avg # of iterations =  2.0

     total cpu time spent up to now is     1401.2 secs

     total energy              =   -5116.24900328 Ry
     estimated scf accuracy    <       0.10098229 Ry

     iteration #  3     ecut=    70.00 Ry     beta= 0.30
     Davidson diagonalization with overlap
     ethr =  3.08E-05,  avg # of iterations =  3.2

     total cpu time spent up to now is     1841.6 secs

     total energy              =   -5116.26995848 Ry
     estimated scf accuracy    <       0.01173233 Ry

     iteration #  4     ecut=    70.00 Ry     beta= 0.30
     Davidson diagonalization with overlap
     ethr =  3.58E-06,  avg # of iterations =  2.0

     total cpu time spent up to now is     2295.9 secs

     total energy              =   -5116.27198423 Ry
     estimated scf accuracy    <       0.00121440 Ry

     iteration #  5     ecut=    70.00 Ry     beta= 0.30
     Davidson diagonalization with overlap
     ethr =  3.70E-07,  avg # of iterations =  4.6

     total cpu time spent up to now is     2757.7 secs

     total energy              =   -5116.27231544 Ry
     estimated scf accuracy    <       0.00021871 Ry

     iteration #  6     ecut=    70.00 Ry     beta= 0.30
     Davidson diagonalization with overlap
     ethr =  6.67E-08,  avg # of iterations =  4.0

     total cpu time spent up to now is     3266.9 secs

     total energy              =   -5116.27233573 Ry
     estimated scf accuracy    <       0.00012873 Ry

     iteration #  7     ecut=    70.00 Ry     beta= 0.30
     Davidson diagonalization with overlap
     ethr =  3.92E-08,  avg # of iterations =  2.8

     total cpu time spent up to now is     3716.8 secs

     total energy              =   -5116.27237520 Ry
     estimated scf accuracy    <       0.00000704 Ry

     iteration #  8     ecut=    70.00 Ry     beta= 0.30
     Davidson diagonalization with overlap
     ethr =  2.15E-09,  avg # of iterations =  3.6

     total cpu time spent up to now is     4162.9 secs

     total energy              =   -5116.27237611 Ry
     estimated scf accuracy    <       0.00000132 Ry

     iteration #  9     ecut=    70.00 Ry     beta= 0.30
     Davidson diagonalization with overlap
     ethr =  4.01E-10,  avg # of iterations =  4.0

     total cpu time spent up to now is     4686.9 secs

     total energy              =   -5116.27237674 Ry
     estimated scf accuracy    <       0.00000008 Ry

     iteration # 10     ecut=    70.00 Ry     beta= 0.30
     Davidson diagonalization with overlap
     ethr =  2.39E-11,  avg # of iterations =  4.6

     total cpu time spent up to now is     5167.7 secs

     total energy              =   -5116.27237676 Ry
     estimated scf accuracy    <       0.00000004 Ry

     iteration # 11     ecut=    70.00 Ry     beta= 0.30
     Davidson diagonalization with overlap
     ethr =  1.24E-11,  avg # of iterations =  2.8

     total cpu time spent up to now is     5615.1 secs

     End of self-consistent calculation

          k = 0.0000 0.0000 0.0000 ( 54325 PWs)   bands (ev):

  -134.7749-134.7749-134.7748-134.7747 -76.4687 -76.4687 -76.4687 -76.4687
   -76.4665 -76.4665 -76.4665 -76.4665 -76.4621 -76.4621 -76.4620 -76.4620
   -55.3303 -55.3303 -55.3303 -55.3302 -55.3185 -55.3185 -55.3185 -55.3184
   -55.3184 -55.3184 -55.3183 -55.3183 -55.2953 -55.2953 -55.2952 -55.2952
   -55.2857 -55.2857 -55.2856 -55.2856 -55.2821 -55.2820 -55.2820 -55.2820
   -55.2820 -55.2820 -55.2819 -55.2819 -55.2800 -55.2800 -55.2799 -55.2799
   -55.2799 -55.2799 -55.2799 -55.2799 -55.1805 -55.1805 -55.1805 -55.1805
   -55.1802 -55.1801 -55.1801 -55.1801 -55.1764 -55.1764 -55.1764 -55.1763
   -55.1763 -55.1763 -55.1763 -55.1762 -55.1759 -55.1759 -55.1758 -55.1758
   -55.1758 -55.1758 -55.1758 -55.1758 -16.0332 -16.0318 -16.0300 -16.0291
   -11.9440 -11.9403 -11.9403 -11.9238 -11.9023 -11.8788 -11.8751 -11.8750
   -11.8448 -11.8443 -11.8440 -11.8434 -11.8431 -11.8427 -11.8420 -11.8416
   -11.8366 -11.8362 -11.8354 -11.8351  -9.5711  -9.4115  -9.2707  -9.2676
    -9.2653  -9.2587  -9.2468  -9.2410  -9.2263  -9.0333  -9.0283  -9.0264
    -3.7146  -3.2532  -2.9083  -2.8983  -2.8930  -2.8864  -2.8725  -2.8717
    -2.8681  -2.8605  -2.8540  -2.8442  -2.8413  -2.8267  -2.7650  -2.1858
     0.9895   1.0109   1.0259   1.1084   1.1247   1.1973   2.1323   2.3327
     2.3821   2.4013   2.4096   2.5179   2.6354   2.7194   2.7388   2.7486
     2.8010   2.8197   2.8481   2.8519   2.8981   2.9031   2.9135   2.9264
     2.9435   3.0596   3.1081   3.1209   3.1685   3.1776   3.2447   3.2798
     3.4143   3.5652   4.0124   4.5816

          k = 0.0000 0.0000-0.3410 ( 54388 PWs)   bands (ev):

  -134.7749-134.7749-134.7748-134.7748 -76.4687 -76.4687 -76.4687 -76.4687
   -76.4665 -76.4665 -76.4665 -76.4665 -76.4621 -76.4621 -76.4620 -76.4620
   -55.3303 -55.3303 -55.3303 -55.3303 -55.3185 -55.3185 -55.3184 -55.3184
   -55.3184 -55.3184 -55.3184 -55.3184 -55.2953 -55.2953 -55.2953 -55.2953
   -55.2857 -55.2857 -55.2857 -55.2857 -55.2820 -55.2820 -55.2820 -55.2820
   -55.2820 -55.2820 -55.2820 -55.2820 -55.2800 -55.2800 -55.2800 -55.2800
   -55.2799 -55.2799 -55.2799 -55.2799 -55.1805 -55.1805 -55.1805 -55.1805
   -55.1802 -55.1802 -55.1802 -55.1802 -55.1764 -55.1764 -55.1763 -55.1763
   -55.1763 -55.1763 -55.1763 -55.1763 -55.1759 -55.1759 -55.1759 -55.1759
   -55.1758 -55.1758 -55.1758 -55.1758 -16.0325 -16.0325 -16.0295 -16.0295
   -11.9403 -11.9403 -11.9233 -11.9233 -11.9015 -11.9015 -11.8751 -11.8751
   -11.8444 -11.8444 -11.8439 -11.8439 -11.8429 -11.8429 -11.8418 -11.8418
   -11.8364 -11.8364 -11.8353 -11.8353  -9.5182  -9.5182  -9.2630  -9.2630
    -9.2456  -9.2456  -9.2441  -9.2441  -9.1246  -9.1246  -9.0273  -9.0273
    -3.5004  -3.5004  -2.8999  -2.8999  -2.8902  -2.8902  -2.8666  -2.8666
    -2.8598  -2.8598  -2.8554  -2.8554  -2.8452  -2.8452  -2.5152  -2.5152
     1.0505   1.0505   1.0734   1.0734   1.7790   1.7790   1.9333   1.9333
     2.2503   2.2503   2.4590   2.4590   2.4837   2.4837   2.7484   2.7484
     2.8018   2.8018   2.8790   2.8790   2.9119   2.9119   2.9475   2.9475
     3.0435   3.0435   3.0756   3.0756   3.1479   3.1479   3.1616   3.1616
     3.3955   3.3955   4.1385   4.1385

          k = 0.0000-0.4791 0.0000 ( 54262 PWs)   bands (ev):

  -134.7748-134.7748-134.7747-134.7747 -76.4687 -76.4687 -76.4687 -76.4687
   -76.4665 -76.4665 -76.4665 -76.4665 -76.4620 -76.4620 -76.4620 -76.4620
   -55.3303 -55.3303 -55.3302 -55.3302 -55.3184 -55.3184 -55.3184 -55.3184
   -55.3184 -55.3184 -55.3184 -55.3184 -55.2953 -55.2953 -55.2953 -55.2953
   -55.2857 -55.2857 -55.2856 -55.2856 -55.2820 -55.2820 -55.2820 -55.2820
   -55.2820 -55.2820 -55.2820 -55.2820 -55.2800 -55.2800 -55.2800 -55.2800
   -55.2799 -55.2799 -55.2799 -55.2799 -55.1806 -55.1806 -55.1805 -55.1805
   -55.1801 -55.1801 -55.1801 -55.1801 -55.1763 -55.1763 -55.1763 -55.1763
   -55.1763 -55.1763 -55.1763 -55.1763 -55.1758 -55.1758 -55.1758 -55.1758
   -55.1758 -55.1758 -55.1758 -55.1758 -16.0316 -16.0316 -16.0304 -16.0304
   -11.9337 -11.9337 -11.9085 -11.9085 -11.9085 -11.9085 -11.8904 -11.8904
   -11.8446 -11.8446 -11.8437 -11.8437 -11.8425 -11.8425 -11.8422 -11.8422
   -11.8361 -11.8361 -11.8357 -11.8357  -9.4708  -9.4708  -9.3383  -9.3383
    -9.2690  -9.2690  -9.1382  -9.1382  -9.1340  -9.1340  -9.0799  -9.0799
    -3.3029  -3.3029  -2.9254  -2.9254  -2.8775  -2.8775  -2.8657  -2.8657
    -2.8601  -2.8601  -2.8528  -2.8528  -2.8370  -2.8370  -2.7547  -2.7547
     1.0796   1.0796   1.6226   1.6226   1.7571   1.7571   1.9352   1.9352
     1.9682   1.9682   2.2821   2.2821   2.5261   2.5261   2.6490   2.6490
     2.6985   2.6985   2.8733   2.8733   2.8858   2.8858   2.9788   2.9788
     2.9809   2.9809   3.1066   3.1066   3.1331   3.1331   3.1964   3.1964
     3.4108   3.4108   3.8066   3.8066

          k = 0.0000-0.4791-0.3410 ( 54288 PWs)   bands (ev):

  -134.7748-134.7748-134.7748-134.7748 -76.4687 -76.4687 -76.4687 -76.4687
   -76.4665 -76.4665 -76.4665 -76.4665 -76.4621 -76.4621 -76.4621 -76.4621
   -55.3303 -55.3303 -55.3303 -55.3303 -55.3184 -55.3184 -55.3184 -55.3184
   -55.3184 -55.3184 -55.3184 -55.3184 -55.2952 -55.2952 -55.2952 -55.2952
   -55.2857 -55.2857 -55.2857 -55.2857 -55.2820 -55.2820 -55.2820 -55.2820
   -55.2820 -55.2820 -55.2820 -55.2820 -55.2800 -55.2800 -55.2800 -55.2800
   -55.2799 -55.2799 -55.2799 -55.2799 -55.1805 -55.1805 -55.1805 -55.1805
   -55.1801 -55.1801 -55.1801 -55.1801 -55.1763 -55.1763 -55.1763 -55.1763
   -55.1763 -55.1763 -55.1763 -55.1763 -55.1759 -55.1759 -55.1759 -55.1759
   -55.1758 -55.1758 -55.1758 -55.1758 -16.0310 -16.0310 -16.0310 -16.0310
   -11.9122 -11.9122 -11.9122 -11.9122 -11.9085 -11.9085 -11.9085 -11.9085
   -11.8442 -11.8442 -11.8442 -11.8442 -11.8424 -11.8424 -11.8424 -11.8424
   -11.8359 -11.8359 -11.8359 -11.8359  -9.4299  -9.4299  -9.4299  -9.4299
    -9.1497  -9.1497  -9.1497  -9.1497  -9.1351  -9.1351  -9.1351  -9.1351
    -3.0877  -3.0877  -3.0877  -3.0877  -2.8867  -2.8867  -2.8867  -2.8867
    -2.8569  -2.8569  -2.8569  -2.8569  -2.8329  -2.8329  -2.8329  -2.8329
     1.6596   1.6596   1.6596   1.6596   1.7259   1.7259   1.7259   1.7259
     2.0656   2.0656   2.0656   2.0656   2.6293   2.6293   2.6293   2.6293
     2.6740   2.6740   2.6740   2.6740   2.8314   2.8314   2.8314   2.8314
     3.1250   3.1250   3.1250   3.1250   3.1641   3.1641   3.1641   3.1641
     3.4498   3.4498   3.4498   3.4498

          k =-0.5000 0.0000 0.0000 ( 54276 PWs)   bands (ev):

  -134.7748-134.7748-134.7747-134.7747 -76.4687 -76.4687 -76.4687 -76.4687
   -76.4665 -76.4665 -76.4665 -76.4665 -76.4621 -76.4621 -76.4620 -76.4620
   -55.3303 -55.3303 -55.3302 -55.3302 -55.3184 -55.3184 -55.3184 -55.3184
   -55.3184 -55.3184 -55.3184 -55.3184 -55.2953 -55.2953 -55.2953 -55.2953
   -55.2857 -55.2857 -55.2857 -55.2857 -55.2820 -55.2820 -55.2820 -55.2820
   -55.2820 -55.2820 -55.2820 -55.2820 -55.2800 -55.2800 -55.2800 -55.2800
   -55.2799 -55.2799 -55.2799 -55.2799 -55.1805 -55.1805 -55.1805 -55.1805
   -55.1802 -55.1802 -55.1800 -55.1800 -55.1764 -55.1764 -55.1764 -55.1764
   -55.1763 -55.1763 -55.1763 -55.1763 -55.1758 -55.1758 -55.1758 -55.1758
   -55.1758 -55.1758 -55.1758 -55.1758 -16.0317 -16.0317 -16.0302 -16.0302
   -11.9337 -11.9337 -11.9086 -11.9086 -11.9085 -11.9085 -11.8903 -11.8903
   -11.8445 -11.8445 -11.8437 -11.8437 -11.8425 -11.8425 -11.8422 -11.8422
   -11.8361 -11.8361 -11.8357 -11.8357  -9.4651  -9.4651  -9.3299  -9.3299
    -9.2699  -9.2699  -9.1490  -9.1490  -9.1429  -9.1429  -9.0766  -9.0766
    -3.2936  -3.2936  -2.9110  -2.9110  -2.8812  -2.8812  -2.8734  -2.8734
    -2.8572  -2.8572  -2.8421  -2.8421  -2.8384  -2.8384  -2.7583  -2.7583
     1.0794   1.0794   1.5935   1.5935   1.7436   1.7436   1.9388   1.9388
     2.0357   2.0357   2.2508   2.2508   2.5201   2.5201   2.6766   2.6766
     2.7489   2.7489   2.8492   2.8492   2.9064   2.9064   2.9921   2.9921
     3.0013   3.0013   3.0517   3.0517   3.1474   3.1474   3.1908   3.1908
     3.3014   3.3014   3.7595   3.7595

          k =-0.5000 0.0000-0.3410 ( 54256 PWs)   bands (ev):

  -134.7748-134.7748-134.7748-134.7748 -76.4687 -76.4687 -76.4687 -76.4687
   -76.4665 -76.4665 -76.4665 -76.4665 -76.4621 -76.4621 -76.4620 -76.4620
   -55.3303 -55.3303 -55.3302 -55.3302 -55.3184 -55.3184 -55.3184 -55.3184
   -55.3184 -55.3184 -55.3184 -55.3184 -55.2952 -55.2952 -55.2952 -55.2952
   -55.2857 -55.2857 -55.2856 -55.2856 -55.2820 -55.2820 -55.2820 -55.2820
   -55.2820 -55.2820 -55.2820 -55.2820 -55.2799 -55.2799 -55.2799 -55.2799
   -55.2799 -55.2799 -55.2799 -55.2799 -55.1805 -55.1805 -55.1805 -55.1805
   -55.1802 -55.1802 -55.1800 -55.1800 -55.1763 -55.1763 -55.1763 -55.1763
   -55.1763 -55.1763 -55.1763 -55.1763 -55.1758 -55.1758 -55.1758 -55.1758
   -55.1758 -55.1758 -55.1758 -55.1758 -16.0315 -16.0315 -16.0304 -16.0304
   -11.9123 -11.9123 -11.9122 -11.9122 -11.9086 -11.9086 -11.9085 -11.9085
   -11.8441 -11.8441 -11.8441 -11.8441 -11.8424 -11.8424 -11.8424 -11.8424
   -11.8359 -11.8359 -11.8359 -11.8359  -9.4264  -9.4264  -9.4222  -9.4222
    -9.1560  -9.1560  -9.1473  -9.1473  -9.1446  -9.1446  -9.1362  -9.1362
    -3.0836  -3.0836  -3.0685  -3.0685  -2.8871  -2.8871  -2.8824  -2.8824
    -2.8587  -2.8587  -2.8466  -2.8466  -2.8456  -2.8456  -2.8351  -2.8351
     1.6388   1.6388   1.6768   1.6768   1.7040   1.7040   1.7253   1.7253
     2.0538   2.0538   2.0660   2.0660   2.6344   2.6344   2.6539   2.6539
     2.7099   2.7099   2.7115   2.7115   2.8821   2.8821   2.8957   2.8957
     3.0866   3.0866   3.1181   3.1181   3.1272   3.1272   3.1804   3.1804
     3.3317   3.3317   3.3467   3.3467

          k =-0.5000-0.4791 0.0000 ( 54220 PWs)   bands (ev):

  -134.7748-134.7748-134.7747-134.7747 -76.4687 -76.4687 -76.4687 -76.4687
   -76.4665 -76.4665 -76.4665 -76.4665 -76.4620 -76.4620 -76.4620 -76.4620
   -55.3303 -55.3303 -55.3302 -55.3302 -55.3185 -55.3185 -55.3184 -55.3184
   -55.3184 -55.3184 -55.3184 -55.3184 -55.2952 -55.2952 -55.2952 -55.2952
   -55.2856 -55.2856 -55.2856 -55.2856 -55.2820 -55.2820 -55.2820 -55.2820
   -55.2819 -55.2819 -55.2819 -55.2819 -55.2799 -55.2799 -55.2799 -55.2799
   -55.2799 -55.2799 -55.2799 -55.2799 -55.1805 -55.1805 -55.1805 -55.1805
   -55.1801 -55.1801 -55.1801 -55.1801 -55.1763 -55.1763 -55.1763 -55.1763
   -55.1763 -55.1763 -55.1763 -55.1763 -55.1758 -55.1758 -55.1758 -55.1758
   -55.1758 -55.1758 -55.1758 -55.1758 -16.0315 -16.0315 -16.0304 -16.0304
   -11.9429 -11.9429 -11.9210 -11.9210 -11.8994 -11.8994 -11.8779 -11.8779
   -11.8446 -11.8446 -11.8437 -11.8437 -11.8425 -11.8425 -11.8421 -11.8421
   -11.8360 -11.8360 -11.8357 -11.8357  -9.4100  -9.4100  -9.2770  -9.2770
    -9.2664  -9.2664  -9.2564  -9.2564  -9.2115  -9.2115  -9.0216  -9.0216
    -3.2697  -3.2697  -2.8772  -2.8772  -2.8756  -2.8756  -2.8571  -2.8571
    -2.8543  -2.8543  -2.8465  -2.8465  -2.8454  -2.8454  -2.7296  -2.7296
     1.0535   1.0535   1.1149   1.1149   1.2595   1.2595   2.1531   2.1531
     2.2756   2.2756   2.5816   2.5816   2.5977   2.5977   2.7208   2.7208
     2.7943   2.7943   2.8865   2.8865   2.8950   2.8950   2.9463   2.9463
     2.9699   2.9699   2.9788   2.9788   3.0039   3.0039   3.2570   3.2570
     3.4907   3.4907   4.0050   4.0050

          k =-0.5000-0.4791-0.3410 ( 54296 PWs)   bands (ev):

  -134.7748-134.7748-134.7748-134.7748 -76.4687 -76.4687 -76.4687 -76.4687
   -76.4665 -76.4665 -76.4665 -76.4665 -76.4621 -76.4621 -76.4621 -76.4621
   -55.3303 -55.3303 -55.3303 -55.3303 -55.3185 -55.3185 -55.3185 -55.3185
   -55.3184 -55.3184 -55.3184 -55.3184 -55.2952 -55.2952 -55.2952 -55.2952
   -55.2857 -55.2857 -55.2857 -55.2857 -55.2820 -55.2820 -55.2820 -55.2820
   -55.2820 -55.2820 -55.2820 -55.2820 -55.2799 -55.2799 -55.2799 -55.2799
   -55.2799 -55.2799 -55.2799 -55.2799 -55.1805 -55.1805 -55.1805 -55.1805
   -55.1801 -55.1801 -55.1801 -55.1801 -55.1763 -55.1763 -55.1763 -55.1763
   -55.1763 -55.1763 -55.1763 -55.1763 -55.1758 -55.1758 -55.1758 -55.1758
   -55.1758 -55.1758 -55.1758 -55.1758 -16.0309 -16.0309 -16.0309 -16.0309
   -11.9291 -11.9291 -11.9291 -11.9291 -11.8916 -11.8916 -11.8916 -11.8916
   -11.8442 -11.8442 -11.8442 -11.8442 -11.8423 -11.8423 -11.8423 -11.8423
   -11.8359 -11.8359 -11.8359 -11.8359  -9.3676  -9.3676  -9.3676  -9.3676
    -9.2643  -9.2643  -9.2643  -9.2643  -9.0891  -9.0891  -9.0891  -9.0891
    -3.0511  -3.0511  -3.0511  -3.0511  -2.8695  -2.8695  -2.8695  -2.8695
    -2.8526  -2.8526  -2.8526  -2.8526  -2.8318  -2.8318  -2.8318  -2.8318
     1.1733   1.1733   1.1733   1.1733   1.8111   1.8111   1.8111   1.8111
     2.2492   2.2492   2.2492   2.2492   2.5871   2.5871   2.5871   2.5871
     2.8841   2.8841   2.8841   2.8841   2.9153   2.9153   2.9153   2.9153
     2.9836   2.9836   2.9836   2.9836   3.1751   3.1751   3.1751   3.1751
     3.5880   3.5880   3.5880   3.5880

     highest occupied level (ev):     4.5816

!    total energy              =   -5116.27237676 Ry
     estimated scf accuracy    <          6.3E-09 Ry

     The total energy is the sum of the following terms:
     one-electron contribution =   -3888.43006082 Ry
     hartree contribution      =    1893.32005097 Ry
     xc contribution           =    -861.55380837 Ry
     ewald contribution        =   -2259.60855854 Ry

     convergence has been achieved in  11 iterations

     Forces acting on atoms (cartesian axes, Ry/au):

     atom    1 type  1   force =    -0.00069360    0.00023280    0.00000000
     atom    2 type  1   force =    -0.00069360   -0.00023280    0.00000000
     atom    3 type  1   force =     0.00069360    0.00023280    0.00000000
     atom    4 type  1   force =     0.00069360   -0.00023280    0.00000000
     atom    5 type  2   force =     0.00000000    0.00000000    0.00000000
     atom    6 type  2   force =     0.00000000   -0.00000000    0.00000000
     atom    7 type  2   force =     0.00000000    0.00000000    0.00000000
     atom    8 type  2   force =     0.00000000    0.00000000    0.00000000
     atom    9 type  3   force =     0.00175855   -0.00060624    0.00000000
     atom   10 type  3   force =     0.00175855    0.00060624    0.00000000
     atom   11 type  3   force =     0.00112137   -0.00104020    0.00122265
     atom   12 type  3   force =    -0.00112137    0.00104020   -0.00122265
     atom   13 type  3   force =     0.00112137    0.00104020   -0.00122265
     atom   14 type  3   force =    -0.00112137   -0.00104020    0.00122265
     atom   15 type  3   force =     0.00112137    0.00104020    0.00122265
     atom   16 type  3   force =    -0.00112137   -0.00104020   -0.00122265
     atom   17 type  3   force =    -0.00112137    0.00104020    0.00122265
     atom   18 type  3   force =     0.00112137   -0.00104020   -0.00122265
     atom   19 type  3   force =    -0.00175855   -0.00060624    0.00000000
     atom   20 type  3   force =    -0.00175855    0.00060624    0.00000000

     Total force =     0.006831     Total SCF correction =     0.000049


     Computing stress (Cartesian axis) and pressure

          total   stress  (Ry/bohr**3)                   (kbar)     P=        0.86
   0.00000804   0.00000000   0.00000000            1.18        0.00        0.00
   0.00000000   0.00000796   0.00000000            0.00        1.17        0.00
   0.00000000   0.00000000   0.00000161            0.00        0.00        0.24


     Writing output data file ./cspbbr3_ecut70.save/

     init_run     :     82.05s CPU    137.10s WALL (       1 calls)
     electrons    :   2708.08s CPU   5477.86s WALL (       1 calls)
     forces       :     46.69s CPU     93.78s WALL (       1 calls)
     stress       :    306.73s CPU    616.89s WALL (       1 calls)

     Called by init_run:
     wfcinit      :     68.60s CPU    123.51s WALL (       1 calls)
     potinit      :      4.95s CPU      5.05s WALL (       1 calls)
     hinit0       :      8.25s CPU      8.28s WALL (       1 calls)

     Called by electrons:
     c_bands      :   2439.35s CPU   4935.59s WALL (      12 calls)
     sum_band     :    262.36s CPU    529.23s WALL (      12 calls)
     v_of_rho     :      5.54s CPU     10.90s WALL (      12 calls)
     mix_rho      :      1.06s CPU      2.20s WALL (      12 calls)

     Called by c_bands:
     init_us_2    :     21.03s CPU     41.87s WALL (     216 calls)
     cegterg      :   2249.16s CPU   4555.12s WALL (      96 calls)

     Called by *egterg:
     cdiaghg      :     28.01s CPU     56.03s WALL (     397 calls)
     h_psi        :   1715.27s CPU   3455.28s WALL (     413 calls)
     g_psi        :      8.14s CPU     16.33s WALL (     309 calls)

     Called by h_psi:
     h_psi:calbec :    236.47s CPU    471.60s WALL (     413 calls)
     vloc_psi     :   1239.13s CPU   2491.43s WALL (     413 calls)
     add_vuspsi   :    234.39s CPU    467.22s WALL (     413 calls)

     General routines
     calbec       :    275.81s CPU    550.32s WALL (     453 calls)
     fft          :      3.34s CPU      6.79s WALL (     145 calls)
     ffts         :      0.30s CPU      0.63s WALL (      12 calls)
     fftw         :   1301.63s CPU   2619.52s WALL (   97572 calls)

     Parallel routines
     fft_scatt_xy :    155.46s CPU    281.80s WALL (   97729 calls)
     fft_scatt_yz :    189.65s CPU    409.25s WALL (   97729 calls)

     PWSCF        :  52m26.21s CPU      1h45m WALL


   This run was terminated on:  15:27:10  25Jul2026            

=------------------------------------------------------------------------------=
   JOB DONE.
=------------------------------------------------------------------------------=
