
     Program PWSCF v.6.7MaX starts on 25Jul2026 at 15:45:41 

     This program is part of the open-source Quantum ESPRESSO suite
     for quantum simulation of materials; please cite
         "P. Giannozzi et al., J. Phys.:Condens. Matter 21 395502 (2009);
         "P. Giannozzi et al., J. Phys.:Condens. Matter 29 465901 (2017);
          URL http://www.quantum-espresso.org", 
     in publications or presentations arising from this work. More details at
     http://www.quantum-espresso.org/quote

     Parallel version (MPI), running on     2 processors

     MPI processes distributed on     1 nodes
     R & G space division:  proc/nbgrp/npool/nimage =       2
     Reading input from bulk_kpoints443.in

     Current dimensions of program PWSCF are:
     Max number of different atomic species (ntypx) = 10
     Max number of k-points (npk) =  40000
     Max angular momentum in pseudopotentials (lmaxx) =  3
     Message from routine read_pp_mesh:
     mesh size missing, using the one in header
     Message from routine read_pp_mesh:
     mesh size missing, using the one in header
     Message from routine read_pp_mesh:
     mesh size missing, using the one in header

     Subspace diagonalization in iterative solution of the eigenvalue problem:
     a serial algorithm will be used

     Message from routine setup:
     using ibrav=0 with symmetry is DISCOURAGED, use correct ibrav instead

     Parallelization info
     --------------------
     sticks:   dense  smooth     PW     G-vecs:    dense   smooth      PW
     Min        2718    2718    733               217154   217154   30131
     Max        2719    2719    734               217157   217157   30132
     Sum        5437    5437   1467               434311   434311   60263



     bravais-lattice index     =            0
     lattice parameter (alat)  =      15.3088  a.u.
     unit-cell volume          =    5489.9762 (a.u.)^3
     number of atoms/cell      =           20
     number of atomic types    =            3
     number of electrons       =       328.00
     number of Kohn-Sham states=          164
     kinetic-energy cutoff     =      70.0000  Ry
     charge density cutoff     =     280.0000  Ry
     scf convergence threshold =      1.0E-08
     mixing beta               =       0.3000
     number of iterations used =            8  plain     mixing
     Exchange-correlation= PBE
                           (   1   4   3   4   0   0   0)

     celldm(1)=  15.308820  celldm(2)=   0.000000  celldm(3)=   0.000000
     celldm(4)=   0.000000  celldm(5)=   0.000000  celldm(6)=   0.000000

     crystal axes: (cart. coord. in units of alat)
               a(1) = (   1.000000   0.000000   0.000000 )  
               a(2) = (   0.000000   1.043546   0.000000 )  
               a(3) = (   0.000000   0.000000   1.466337 )  

     reciprocal axes: (cart. coord. in units 2 pi/alat)
               b(1) = (  1.000000  0.000000  0.000000 )  
               b(2) = (  0.000000  0.958271  0.000000 )  
               b(3) = (  0.000000  0.000000  0.681971 )  


     PseudoPot. # 1 for Cs read from file:
     /usr/share/espresso/pseudo/Cs.upf
     MD5 check sum: d01c53d012be9123745781bcb8b00a26
     Pseudo is Norm-conserving + core correction, Zval =  9.0
     Generated using ONCVPSP code by D. R. Hamann
     Using radial grid of 2414 points,  8 beta functions with: 
                l(1) =   0
                l(2) =   0
                l(3) =   1
                l(4) =   1
                l(5) =   2
                l(6) =   2
                l(7) =   3
                l(8) =   3

     PseudoPot. # 2 for Pb read from file:
     /usr/share/espresso/pseudo/Pb.upf
     MD5 check sum: ef32195dce39f3be2bd8d55c45026041
     Pseudo is Norm-conserving + core correction, Zval = 22.0
     Generated using ONCVPSP code by D. R. Hamann
     Using radial grid of 1692 points,  7 beta functions with: 
                l(1) =   0
                l(2) =   0
                l(3) =   1
                l(4) =   1
                l(5) =   2
                l(6) =   2
                l(7) =   3

     PseudoPot. # 3 for Br read from file:
     /usr/share/espresso/pseudo/Br.upf
     MD5 check sum: 89331df975851c81b2ee53e8f046c6dd
     Pseudo is Norm-conserving + core correction, Zval = 17.0
     Generated using ONCVPSP code by D. R. Hamann
     Using radial grid of 1098 points,  6 beta functions with: 
                l(1) =   0
                l(2) =   0
                l(3) =   1
                l(4) =   1
                l(5) =   2
                l(6) =   2

     atomic species   valence    mass     pseudopotential
        Cs             9.00   132.90545     Cs( 1.00)
        Pb            22.00   207.20000     Pb( 1.00)
        Br            17.00    79.90400     Br( 1.00)

      8 Sym. Ops., with inversion, found ( 6 have fractional translation)



   Cartesian axes

     site n.     atom                  positions (alat units)
         1           Cs  tau(   1) = (   0.5194521   0.4589896   0.3665843  )
         2           Cs  tau(   2) = (   0.0194521   0.0627833   1.0997528  )
         3           Cs  tau(   3) = (   0.9805479   0.9807625   0.3665843  )
         4           Cs  tau(   4) = (   0.4805479   0.5845563   1.0997528  )
         5           Pb  tau(   5) = (   0.5000000   0.0000000   0.7331685  )
         6           Pb  tau(   6) = (   0.0000000   0.5217729   0.0000000  )
         7           Pb  tau(   7) = (   0.0000000   0.5217729   0.7331685  )
         8           Pb  tau(   8) = (   0.5000000   0.0000000   0.0000000  )
         9           Br  tau(   9) = (   0.5596655   1.0370139   1.0997528  )
        10           Br  tau(  10) = (   0.0596655   0.5283050   0.3665843  )
        11           Br  tau(  11) = (   0.8027919   0.2097759   0.0464848  )
        12           Br  tau(  12) = (   0.1972081   0.8337700   1.4198523  )
        13           Br  tau(  13) = (   0.3027919   0.3119971   1.4198523  )
        14           Br  tau(  14) = (   0.6972081   0.7315488   0.0464848  )
        15           Br  tau(  15) = (   0.3027919   0.3119971   0.7796533  )
        16           Br  tau(  16) = (   0.6972081   0.7315488   0.6866838  )
        17           Br  tau(  17) = (   0.1972081   0.8337700   0.7796533  )
        18           Br  tau(  18) = (   0.8027919   0.2097759   0.6866838  )
        19           Br  tau(  19) = (   0.9403345   0.5152409   1.0997528  )
        20           Br  tau(  20) = (   0.4403345   0.0065320   0.3665843  )

     number of k points=    18
                       cart. coord. in units 2pi/alat
        k(    1) = (   0.0000000   0.0000000   0.0000000), wk =   0.0416667
        k(    2) = (   0.0000000   0.0000000   0.2273238), wk =   0.0833333
        k(    3) = (   0.0000000   0.2395678   0.0000000), wk =   0.0833333
        k(    4) = (   0.0000000   0.2395678   0.2273238), wk =   0.1666667
        k(    5) = (   0.0000000  -0.4791356   0.0000000), wk =   0.0416667
        k(    6) = (   0.0000000  -0.4791356   0.2273238), wk =   0.0833333
        k(    7) = (   0.2500000   0.0000000   0.0000000), wk =   0.0833333
        k(    8) = (   0.2500000   0.0000000   0.2273238), wk =   0.1666667
        k(    9) = (   0.2500000   0.2395678   0.0000000), wk =   0.1666667
        k(   10) = (   0.2500000   0.2395678   0.2273238), wk =   0.3333333
        k(   11) = (   0.2500000  -0.4791356   0.0000000), wk =   0.0833333
        k(   12) = (   0.2500000  -0.4791356   0.2273238), wk =   0.1666667
        k(   13) = (  -0.5000000   0.0000000   0.0000000), wk =   0.0416667
        k(   14) = (  -0.5000000   0.0000000   0.2273238), wk =   0.0833333
        k(   15) = (  -0.5000000   0.2395678   0.0000000), wk =   0.0833333
        k(   16) = (  -0.5000000   0.2395678   0.2273238), wk =   0.1666667
        k(   17) = (  -0.5000000  -0.4791356   0.0000000), wk =   0.0416667
        k(   18) = (  -0.5000000  -0.4791356   0.2273238), wk =   0.0833333

     Dense  grid:   434311 G-vectors     FFT dimensions: (  90,  90, 120)

     Estimated max dynamical RAM per process >       1.85 GB

     Estimated total dynamical RAM >       3.71 GB

     Initial potential from superposition of free atoms

     starting charge  327.83857, renormalised to  328.00000
     Starting wfcs are  180 randomized atomic wfcs

     total cpu time spent up to now is      388.2 secs

     Self-consistent Calculation

     iteration #  1     ecut=    70.00 Ry     beta= 0.30
     Davidson diagonalization with overlap
     ethr =  1.00E-02,  avg # of iterations =  2.0

     Threshold (ethr) on eigenvalues was too large:
     Diagonalizing with lowered threshold

     Davidson diagonalization with overlap
     ethr =  2.09E-04,  avg # of iterations =  3.0

     total cpu time spent up to now is     2342.4 secs

     total energy              =   -5116.22747858 Ry
     estimated scf accuracy    <       0.61087136 Ry

     iteration #  2     ecut=    70.00 Ry     beta= 0.30
     Davidson diagonalization with overlap
     ethr =  1.86E-04,  avg # of iterations =  2.0

     total cpu time spent up to now is     3113.3 secs

     total energy              =   -5116.25460855 Ry
     estimated scf accuracy    <       0.09963130 Ry

     iteration #  3     ecut=    70.00 Ry     beta= 0.30
     Davidson diagonalization with overlap
     ethr =  3.04E-05,  avg # of iterations =  3.4

     total cpu time spent up to now is     4024.7 secs

     total energy              =   -5116.27543062 Ry
     estimated scf accuracy    <       0.01172927 Ry

     iteration #  4     ecut=    70.00 Ry     beta= 0.30
     Davidson diagonalization with overlap
     ethr =  3.58E-06,  avg # of iterations =  2.1

     total cpu time spent up to now is     4885.3 secs

     total energy              =   -5116.27747910 Ry
     estimated scf accuracy    <       0.00129601 Ry

     iteration #  5     ecut=    70.00 Ry     beta= 0.30
     Davidson diagonalization with overlap
     ethr =  3.95E-07,  avg # of iterations =  4.4

     total cpu time spent up to now is     5838.2 secs

     total energy              =   -5116.27781684 Ry
     estimated scf accuracy    <       0.00022278 Ry

     iteration #  6     ecut=    70.00 Ry     beta= 0.30
     Davidson diagonalization with overlap
     ethr =  6.79E-08,  avg # of iterations =  4.1

     total cpu time spent up to now is     6903.3 secs

     total energy              =   -5116.27783978 Ry
     estimated scf accuracy    <       0.00013651 Ry

     iteration #  7     ecut=    70.00 Ry     beta= 0.30
     Davidson diagonalization with overlap
     ethr =  4.16E-08,  avg # of iterations =  3.0

     total cpu time spent up to now is     7810.2 secs

     total energy              =   -5116.27788141 Ry
     estimated scf accuracy    <       0.00000707 Ry

     iteration #  8     ecut=    70.00 Ry     beta= 0.30
     Davidson diagonalization with overlap
     ethr =  2.16E-09,  avg # of iterations =  3.3

     total cpu time spent up to now is     8690.2 secs

     total energy              =   -5116.27788216 Ry
     estimated scf accuracy    <       0.00000148 Ry

     iteration #  9     ecut=    70.00 Ry     beta= 0.30
     Davidson diagonalization with overlap
     ethr =  4.53E-10,  avg # of iterations =  4.0

     total cpu time spent up to now is     9716.0 secs

     total energy              =   -5116.27788284 Ry
     estimated scf accuracy    <       0.00000009 Ry

     iteration # 10     ecut=    70.00 Ry     beta= 0.30
     Davidson diagonalization with overlap
     ethr =  2.75E-11,  avg # of iterations =  4.9

     total cpu time spent up to now is    10755.5 secs

     total energy              =   -5116.27788286 Ry
     estimated scf accuracy    <       0.00000004 Ry

     iteration # 11     ecut=    70.00 Ry     beta= 0.30
     Davidson diagonalization with overlap
     ethr =  1.21E-11,  avg # of iterations =  2.4

     total cpu time spent up to now is    11648.9 secs

     End of self-consistent calculation

          k = 0.0000 0.0000 0.0000 ( 54325 PWs)   bands (ev):

  -134.7661-134.7660-134.7659-134.7658 -76.4595 -76.4595 -76.4595 -76.4595
   -76.4573 -76.4573 -76.4573 -76.4573 -76.4530 -76.4530 -76.4530 -76.4530
   -55.3415 -55.3415 -55.3415 -55.3414 -55.3284 -55.3284 -55.3283 -55.3283
   -55.3283 -55.3283 -55.3282 -55.3282 -55.3057 -55.3056 -55.3056 -55.3056
   -55.2962 -55.2962 -55.2961 -55.2961 -55.2910 -55.2910 -55.2909 -55.2909
   -55.2909 -55.2909 -55.2909 -55.2909 -55.2893 -55.2893 -55.2892 -55.2892
   -55.2892 -55.2892 -55.2892 -55.2892 -55.1883 -55.1883 -55.1883 -55.1883
   -55.1879 -55.1879 -55.1878 -55.1878 -55.1829 -55.1829 -55.1829 -55.1829
   -55.1828 -55.1828 -55.1828 -55.1828 -55.1825 -55.1824 -55.1824 -55.1823
   -55.1823 -55.1823 -55.1823 -55.1823 -16.0350 -16.0337 -16.0319 -16.0310
   -11.9349 -11.9311 -11.9311 -11.9146 -11.8929 -11.8693 -11.8654 -11.8654
   -11.8349 -11.8344 -11.8341 -11.8335 -11.8334 -11.8330 -11.8323 -11.8319
   -11.8268 -11.8264 -11.8257 -11.8253  -9.5759  -9.4160  -9.2770  -9.2731
    -9.2713  -9.2638  -9.2520  -9.2462  -9.2320  -9.0388  -9.0330  -9.0312
    -3.7091  -3.2480  -2.9100  -2.9000  -2.8948  -2.8882  -2.8743  -2.8735
    -2.8699  -2.8623  -2.8558  -2.8457  -2.8431  -2.8280  -2.7596  -2.1791
     0.9871   1.0090   1.0241   1.1064   1.1229   1.1946   2.1293   2.3299
     2.3790   2.3979   2.4062   2.5144   2.6319   2.7152   2.7350   2.7447
     2.7967   2.8160   2.8444   2.8478   2.8948   2.8999   2.9092   2.9223
     2.9393   3.0559   3.1042   3.1168   3.1646   3.1736   3.2406   3.2756
     3.4107   3.5620   4.0104   4.5800

          k = 0.0000 0.0000 0.2273 ( 54324 PWs)   bands (ev):

  -134.7660-134.7660-134.7659-134.7659 -76.4595 -76.4595 -76.4595 -76.4595
   -76.4573 -76.4573 -76.4573 -76.4573 -76.4530 -76.4530 -76.4530 -76.4530
   -55.3415 -55.3415 -55.3415 -55.3415 -55.3284 -55.3284 -55.3283 -55.3283
   -55.3283 -55.3282 -55.3282 -55.3282 -55.3057 -55.3057 -55.3056 -55.3056
   -55.2961 -55.2961 -55.2961 -55.2961 -55.2910 -55.2910 -55.2909 -55.2909
   -55.2909 -55.2909 -55.2909 -55.2909 -55.2893 -55.2893 -55.2892 -55.2892
   -55.2892 -55.2892 -55.2892 -55.2891 -55.1883 -55.1883 -55.1883 -55.1883
   -55.1879 -55.1879 -55.1879 -55.1879 -55.1829 -55.1829 -55.1829 -55.1828
   -55.1828 -55.1828 -55.1828 -55.1828 -55.1824 -55.1824 -55.1824 -55.1824
   -55.1823 -55.1823 -55.1823 -55.1823 -16.0347 -16.0340 -16.0316 -16.0312
   -11.9311 -11.9311 -11.9245 -11.9035 -11.9034 -11.8807 -11.8654 -11.8654
   -11.8347 -11.8343 -11.8342 -11.8338 -11.8333 -11.8331 -11.8322 -11.8320
   -11.8268 -11.8265 -11.8256 -11.8254  -9.5523  -9.4839  -9.2703  -9.2660
    -9.2616  -9.2509  -9.2477  -9.2417  -9.1889  -9.0817  -9.0325  -9.0316
    -3.6057  -3.3757  -2.9056  -2.8984  -2.8966  -2.8883  -2.8720  -2.8675
    -2.8629  -2.8625  -2.8575  -2.8549  -2.8514  -2.8358  -2.6418  -2.3577
     1.0286   1.0474   1.0678   1.0968   1.4026   1.5575   2.1069   2.1864
     2.2873   2.3426   2.4288   2.4345   2.4903   2.5376   2.7309   2.7537
     2.7593   2.8468   2.8731   2.8769   2.8796   2.9216   2.9428   2.9527
     3.0140   3.0408   3.0635   3.0740   3.1066   3.1501   3.2011   3.2109
     3.3937   3.4177   4.0596   4.2744

          k = 0.0000 0.2396 0.0000 ( 54277 PWs)   bands (ev):

  -134.7659-134.7659-134.7659-134.7659 -76.4595 -76.4595 -76.4595 -76.4595
   -76.4573 -76.4573 -76.4573 -76.4573 -76.4530 -76.4530 -76.4530 -76.4530
   -55.3415 -55.3415 -55.3414 -55.3414 -55.3284 -55.3283 -55.3283 -55.3283
   -55.3283 -55.3282 -55.3282 -55.3282 -55.3057 -55.3056 -55.3056 -55.3056
   -55.2962 -55.2962 -55.2961 -55.2961 -55.2910 -55.2910 -55.2910 -55.2909
   -55.2909 -55.2909 -55.2909 -55.2909 -55.2893 -55.2893 -55.2892 -55.2892
   -55.2892 -55.2892 -55.2892 -55.2891 -55.1883 -55.1883 -55.1883 -55.1883
   -55.1879 -55.1879 -55.1879 -55.1878 -55.1829 -55.1829 -55.1828 -55.1828
   -55.1828 -55.1828 -55.1828 -55.1828 -55.1824 -55.1824 -55.1823 -55.1823
   -55.1823 -55.1823 -55.1823 -55.1823 -16.0346 -16.0333 -16.0323 -16.0314
   -11.9319 -11.9219 -11.9219 -11.9175 -11.8894 -11.8754 -11.8754 -11.8726
   -11.8349 -11.8345 -11.8340 -11.8336 -11.8332 -11.8329 -11.8325 -11.8321
   -11.8267 -11.8263 -11.8259 -11.8255  -9.5497  -9.3952  -9.3696  -9.2878
    -9.2766  -9.2731  -9.2203  -9.2148  -9.1518  -9.0654  -9.0628  -9.0496
    -3.5947  -3.1335  -2.9665  -2.9114  -2.8912  -2.8886  -2.8832  -2.8726
    -2.8674  -2.8591  -2.8498  -2.8431  -2.8421  -2.8375  -2.8306  -2.3806
     1.0178   1.1542   1.1854   1.2940   1.3181   1.3619   2.1751   2.2071
     2.2943   2.3004   2.3713   2.3916   2.4279   2.5526   2.6105   2.6947
     2.8116   2.8246   2.8653   2.8873   2.8913   2.8959   2.9378   2.9390
     2.9908   3.0176   3.0658   3.0664   3.1474   3.1506   3.2299   3.2566
     3.4232   3.6200   3.6727   4.2223

          k = 0.0000 0.2396 0.2273 ( 54315 PWs)   bands (ev):

  -134.7660-134.7659-134.7659-134.7659 -76.4595 -76.4595 -76.4595 -76.4595
   -76.4573 -76.4573 -76.4573 -76.4573 -76.4530 -76.4530 -76.4530 -76.4530
   -55.3415 -55.3415 -55.3415 -55.3415 -55.3283 -55.3283 -55.3283 -55.3283
   -55.3283 -55.3283 -55.3283 -55.3282 -55.3057 -55.3057 -55.3056 -55.3056
   -55.2962 -55.2962 -55.2961 -55.2961 -55.2910 -55.2910 -55.2910 -55.2910
   -55.2909 -55.2909 -55.2909 -55.2909 -55.2893 -55.2893 -55.2893 -55.2892
   -55.2892 -55.2892 -55.2892 -55.2892 -55.1883 -55.1883 -55.1883 -55.1883
   -55.1879 -55.1879 -55.1879 -55.1879 -55.1829 -55.1829 -55.1828 -55.1828
   -55.1828 -55.1828 -55.1828 -55.1828 -55.1824 -55.1824 -55.1824 -55.1824
   -55.1823 -55.1823 -55.1823 -55.1823 -16.0342 -16.0336 -16.0321 -16.0316
   -11.9219 -11.9219 -11.9214 -11.9064 -11.9001 -11.8840 -11.8754 -11.8754
   -11.8347 -11.8343 -11.8342 -11.8338 -11.8331 -11.8330 -11.8324 -11.8322
   -11.8266 -11.8264 -11.8258 -11.8256  -9.5273  -9.4621  -9.3597  -9.3298
    -9.2209  -9.2195  -9.2166  -9.1905  -9.1713  -9.0898  -9.0648  -9.0635
    -3.4912  -3.2604  -2.9100  -2.9024  -2.8910  -2.8853  -2.8837  -2.8688
    -2.8639  -2.8585  -2.8581  -2.8505  -2.8497  -2.8433  -2.7789  -2.5415
     1.2108   1.2461   1.2649   1.3312   1.4960   1.5101   2.1239   2.2050
     2.2104   2.2394   2.2777   2.3081   2.4675   2.5152   2.5288   2.6734
     2.6933   2.7992   2.8180   2.8547   2.8814   2.9046   2.9272   2.9416
     3.0537   3.0582   3.0843   3.1093   3.1158   3.1412   3.1920   3.2148
     3.4051   3.4422   3.7120   3.9163

          k = 0.0000-0.4791 0.0000 ( 54262 PWs)   bands (ev):

  -134.7659-134.7659-134.7659-134.7659 -76.4595 -76.4595 -76.4595 -76.4595
   -76.4573 -76.4573 -76.4573 -76.4573 -76.4530 -76.4530 -76.4530 -76.4530
   -55.3415 -55.3415 -55.3414 -55.3414 -55.3283 -55.3283 -55.3283 -55.3283
   -55.3283 -55.3283 -55.3283 -55.3283 -55.3057 -55.3057 -55.3056 -55.3056
   -55.2961 -55.2961 -55.2961 -55.2961 -55.2910 -55.2910 -55.2909 -55.2909
   -55.2909 -55.2909 -55.2909 -55.2909 -55.2893 -55.2893 -55.2892 -55.2892
   -55.2892 -55.2892 -55.2892 -55.2892 -55.1883 -55.1883 -55.1883 -55.1883
   -55.1879 -55.1879 -55.1878 -55.1878 -55.1829 -55.1829 -55.1828 -55.1828
   -55.1828 -55.1828 -55.1828 -55.1828 -55.1824 -55.1824 -55.1823 -55.1823
   -55.1823 -55.1823 -55.1823 -55.1823 -16.0334 -16.0334 -16.0323 -16.0323
   -11.9246 -11.9246 -11.8991 -11.8991 -11.8990 -11.8990 -11.8809 -11.8809
   -11.8347 -11.8347 -11.8338 -11.8338 -11.8329 -11.8329 -11.8325 -11.8325
   -11.8263 -11.8263 -11.8259 -11.8259  -9.4758  -9.4758  -9.3431  -9.3431
    -9.2753  -9.2753  -9.1431  -9.1431  -9.1389  -9.1389  -9.0854  -9.0854
    -3.2976  -3.2976  -2.9260  -2.9260  -2.8793  -2.8793  -2.8674  -2.8674
    -2.8619  -2.8619  -2.8542  -2.8542  -2.8387  -2.8387  -2.7505  -2.7505
     1.0770   1.0770   1.6202   1.6202   1.7547   1.7547   1.9333   1.9333
     1.9657   1.9657   2.2789   2.2789   2.5226   2.5226   2.6458   2.6458
     2.6951   2.6951   2.8698   2.8698   2.8817   2.8817   2.9747   2.9747
     2.9773   2.9773   3.1028   3.1028   3.1290   3.1290   3.1923   3.1923
     3.4077   3.4077   3.8043   3.8043

          k = 0.0000-0.4791 0.2273 ( 54352 PWs)   bands (ev):

  -134.7660-134.7660-134.7660-134.7660 -76.4595 -76.4595 -76.4595 -76.4595
   -76.4573 -76.4573 -76.4573 -76.4573 -76.4530 -76.4530 -76.4530 -76.4530
   -55.3415 -55.3415 -55.3415 -55.3415 -55.3283 -55.3283 -55.3283 -55.3283
   -55.3283 -55.3283 -55.3283 -55.3283 -55.3057 -55.3057 -55.3057 -55.3057
   -55.2962 -55.2962 -55.2962 -55.2962 -55.2910 -55.2910 -55.2910 -55.2910
   -55.2910 -55.2910 -55.2909 -55.2909 -55.2893 -55.2893 -55.2893 -55.2893
   -55.2892 -55.2892 -55.2892 -55.2892 -55.1883 -55.1883 -55.1883 -55.1883
   -55.1879 -55.1879 -55.1878 -55.1878 -55.1829 -55.1829 -55.1829 -55.1829
   -55.1829 -55.1829 -55.1828 -55.1828 -55.1824 -55.1824 -55.1824 -55.1824
   -55.1823 -55.1823 -55.1823 -55.1823 -16.0331 -16.0331 -16.0326 -16.0326
   -11.9138 -11.9138 -11.8991 -11.8991 -11.8991 -11.8991 -11.8920 -11.8920
   -11.8345 -11.8345 -11.8341 -11.8341 -11.8328 -11.8328 -11.8326 -11.8326
   -11.8262 -11.8262 -11.8260 -11.8260  -9.4576  -9.4576  -9.4040  -9.4040
    -9.1999  -9.1999  -9.1423  -9.1423  -9.1399  -9.1399  -9.1172  -9.1172
    -3.1934  -3.1934  -2.9759  -2.9759  -2.8863  -2.8863  -2.8844  -2.8844
    -2.8621  -2.8621  -2.8526  -2.8526  -2.8414  -2.8414  -2.8194  -2.8194
     1.4105   1.4105   1.6500   1.6500   1.7148   1.7148   1.8780   1.8780
     1.9838   1.9838   2.1949   2.1949   2.5729   2.5729   2.6327   2.6327
     2.6699   2.6699   2.7541   2.7541   2.8282   2.8282   2.8662   2.8662
     3.0902   3.0902   3.1040   3.1040   3.1509   3.1509   3.1876   3.1876
     3.4181   3.4181   3.5376   3.5376

          k = 0.2500 0.0000 0.0000 ( 54321 PWs)   bands (ev):

  -134.7660-134.7659-134.7659-134.7659 -76.4595 -76.4595 -76.4595 -76.4595
   -76.4573 -76.4573 -76.4573 -76.4573 -76.4530 -76.4530 -76.4530 -76.4530
   -55.3415 -55.3415 -55.3415 -55.3414 -55.3284 -55.3283 -55.3283 -55.3283
   -55.3283 -55.3283 -55.3283 -55.3282 -55.3057 -55.3056 -55.3056 -55.3056
   -55.2962 -55.2961 -55.2961 -55.2961 -55.2910 -55.2910 -55.2910 -55.2910
   -55.2909 -55.2909 -55.2909 -55.2909 -55.2893 -55.2893 -55.2893 -55.2892
   -55.2892 -55.2892 -55.2892 -55.2891 -55.1883 -55.1883 -55.1883 -55.1883
   -55.1880 -55.1879 -55.1879 -55.1878 -55.1829 -55.1829 -55.1829 -55.1828
   -55.1828 -55.1828 -55.1828 -55.1828 -55.1824 -55.1824 -55.1824 -55.1824
   -55.1823 -55.1823 -55.1823 -55.1823 -16.0346 -16.0334 -16.0321 -16.0313
   -11.9319 -11.9220 -11.9219 -11.9175 -11.8893 -11.8755 -11.8754 -11.8726
   -11.8349 -11.8345 -11.8340 -11.8336 -11.8332 -11.8329 -11.8325 -11.8321
   -11.8267 -11.8263 -11.8259 -11.8255  -9.5481  -9.3929  -9.3594  -9.2769
    -9.2736  -9.2729  -9.2377  -9.2299  -9.1458  -9.0683  -9.0655  -9.0490
    -3.5926  -3.1310  -2.9355  -2.8997  -2.8940  -2.8861  -2.8774  -2.8757
    -2.8697  -2.8629  -2.8616  -2.8544  -2.8431  -2.8410  -2.8275  -2.3793
     1.0167   1.1540   1.1676   1.2708   1.3245   1.4047   2.1373   2.1836
     2.2731   2.3442   2.3715   2.4253   2.4480   2.5544   2.6440   2.6907
     2.7850   2.8258   2.8396   2.8785   2.9187   2.9335   2.9526   2.9840
     2.9874   3.0065   3.0167   3.0746   3.1183   3.1349   3.2449   3.2531
     3.3503   3.6003   3.6591   4.1892

          k = 0.2500 0.0000 0.2273 ( 54293 PWs)   bands (ev):

  -134.7660-134.7659-134.7659-134.7659 -76.4595 -76.4595 -76.4595 -76.4595
   -76.4573 -76.4573 -76.4573 -76.4573 -76.4530 -76.4530 -76.4530 -76.4530
   -55.3415 -55.3415 -55.3415 -55.3414 -55.3283 -55.3283 -55.3283 -55.3283
   -55.3283 -55.3283 -55.3283 -55.3282 -55.3057 -55.3056 -55.3056 -55.3056
   -55.2962 -55.2961 -55.2961 -55.2961 -55.2910 -55.2910 -55.2909 -55.2909
   -55.2909 -55.2909 -55.2909 -55.2909 -55.2893 -55.2892 -55.2892 -55.2892
   -55.2892 -55.2892 -55.2892 -55.2892 -55.1883 -55.1883 -55.1883 -55.1882
   -55.1879 -55.1879 -55.1878 -55.1878 -55.1829 -55.1829 -55.1828 -55.1828
   -55.1828 -55.1828 -55.1828 -55.1828 -55.1824 -55.1824 -55.1824 -55.1824
   -55.1823 -55.1823 -55.1823 -55.1823 -16.0343 -16.0337 -16.0320 -16.0315
   -11.9220 -11.9219 -11.9214 -11.9064 -11.9001 -11.8840 -11.8755 -11.8754
   -11.8347 -11.8343 -11.8342 -11.8338 -11.8331 -11.8330 -11.8324 -11.8322
   -11.8266 -11.8264 -11.8258 -11.8256  -9.5257  -9.4604  -9.3498  -9.3209
    -9.2359  -9.2323  -9.2150  -9.1912  -9.1648  -9.0892  -9.0676  -9.0662
    -3.4890  -3.2579  -2.9007  -2.8992  -2.8842  -2.8766  -2.8752  -2.8695
    -2.8657  -2.8582  -2.8552  -2.8544  -2.8485  -2.8347  -2.8041  -2.5438
     1.1911   1.2349   1.2665   1.3654   1.4933   1.5094   2.1091   2.1450
     2.2053   2.2501   2.3060   2.3155   2.4885   2.5188   2.5431   2.6557
     2.7397   2.7906   2.8519   2.8630   2.9075   2.9262   2.9503   2.9952
     3.0112   3.0300   3.0674   3.0873   3.1081   3.1174   3.1933   3.2149
     3.3485   3.4050   3.6848   3.8718

          k = 0.2500 0.2396 0.0000 ( 54277 PWs)   bands (ev):

  -134.7661-134.7659-134.7659-134.7659 -76.4595 -76.4595 -76.4595 -76.4595
   -76.4573 -76.4573 -76.4573 -76.4573 -76.4530 -76.4530 -76.4530 -76.4530
   -55.3415 -55.3415 -55.3414 -55.3414 -55.3283 -55.3283 -55.3283 -55.3283
   -55.3283 -55.3283 -55.3282 -55.3282 -55.3057 -55.3056 -55.3056 -55.3056
   -55.2962 -55.2961 -55.2961 -55.2961 -55.2910 -55.2910 -55.2910 -55.2909
   -55.2909 -55.2909 -55.2909 -55.2909 -55.2893 -55.2892 -55.2892 -55.2892
   -55.2892 -55.2892 -55.2892 -55.2891 -55.1883 -55.1883 -55.1883 -55.1882
   -55.1879 -55.1879 -55.1879 -55.1878 -55.1829 -55.1829 -55.1829 -55.1828
   -55.1828 -55.1828 -55.1828 -55.1828 -55.1824 -55.1824 -55.1823 -55.1823
   -55.1823 -55.1823 -55.1823 -55.1823 -16.0342 -16.0331 -16.0325 -16.0316
   -11.9340 -11.9216 -11.9183 -11.9111 -11.8893 -11.8838 -11.8805 -11.8682
   -11.8348 -11.8345 -11.8340 -11.8337 -11.8331 -11.8327 -11.8326 -11.8322
   -11.8266 -11.8262 -11.8260 -11.8256  -9.5218  -9.3719  -9.3712  -9.2789
    -9.2749  -9.2645  -9.2627  -9.2339  -9.1246  -9.0957  -9.0957  -9.0320
    -3.5025  -3.0497  -3.0413  -2.8947  -2.8905  -2.8769  -2.8759  -2.8683
    -2.8655  -2.8560  -2.8546  -2.8498  -2.8428  -2.8351  -2.8345  -2.4928
     1.0293   1.0630   1.1128   1.1859   1.7358   1.7949   1.8101   1.9415
     2.2313   2.2412   2.2699   2.4796   2.4881   2.6162   2.6929   2.7366
     2.8108   2.8190   2.8517   2.8733   2.8753   2.9123   2.9174   2.9340
     2.9890   3.0052   3.0417   3.0774   3.0889   3.1203   3.1912   3.2336
     3.3798   3.6085   3.6698   4.1541

          k = 0.2500 0.2396 0.2273 ( 54293 PWs)   bands (ev):

  -134.7660-134.7659-134.7659-134.7659 -76.4595 -76.4595 -76.4595 -76.4595
   -76.4573 -76.4573 -76.4573 -76.4573 -76.4530 -76.4530 -76.4530 -76.4530
   -55.3415 -55.3415 -55.3414 -55.3414 -55.3283 -55.3283 -55.3283 -55.3283
   -55.3283 -55.3283 -55.3283 -55.3282 -55.3057 -55.3057 -55.3056 -55.3056
   -55.2962 -55.2961 -55.2961 -55.2961 -55.2910 -55.2910 -55.2910 -55.2909
   -55.2909 -55.2909 -55.2909 -55.2909 -55.2893 -55.2893 -55.2892 -55.2892
   -55.2892 -55.2892 -55.2892 -55.2892 -55.1883 -55.1883 -55.1883 -55.1883
   -55.1879 -55.1879 -55.1878 -55.1878 -55.1829 -55.1829 -55.1828 -55.1828
   -55.1828 -55.1828 -55.1828 -55.1828 -55.1824 -55.1824 -55.1823 -55.1823
   -55.1823 -55.1823 -55.1823 -55.1823 -16.0339 -16.0334 -16.0323 -16.0318
   -11.9266 -11.9195 -11.9115 -11.9079 -11.8943 -11.8934 -11.8796 -11.8745
   -11.8346 -11.8343 -11.8342 -11.8339 -11.8330 -11.8328 -11.8325 -11.8323
   -11.8265 -11.8263 -11.8259 -11.8257  -9.5005  -9.4380  -9.3589  -9.3207
    -9.2648  -9.2639  -9.1980  -9.1784  -9.1343  -9.1189  -9.0908  -9.0596
    -3.3986  -3.1662  -2.9537  -2.8943  -2.8930  -2.8770  -2.8723  -2.8666
    -2.8651  -2.8602  -2.8561  -2.8522  -2.8493  -2.8412  -2.8228  -2.6456
     1.0880   1.1399   1.3773   1.4738   1.7378   1.7908   1.8565   1.8816
     2.1305   2.2223   2.2739   2.2911   2.4936   2.5715   2.6070   2.6422
     2.7290   2.7474   2.8018   2.8390   2.8851   2.9201   2.9675   2.9938
     3.0191   3.0481   3.0572   3.0808   3.1131   3.1403   3.1786   3.2025
     3.3601   3.4348   3.6422   3.8489

          k = 0.2500-0.4791 0.0000 ( 54270 PWs)   bands (ev):

  -134.7660-134.7660-134.7659-134.7659 -76.4595 -76.4595 -76.4595 -76.4595
   -76.4573 -76.4573 -76.4573 -76.4573 -76.4530 -76.4530 -76.4530 -76.4530
   -55.3415 -55.3415 -55.3414 -55.3414 -55.3284 -55.3284 -55.3283 -55.3283
   -55.3283 -55.3283 -55.3283 -55.3283 -55.3057 -55.3057 -55.3056 -55.3056
   -55.2961 -55.2961 -55.2961 -55.2961 -55.2909 -55.2909 -55.2909 -55.2909
   -55.2909 -55.2909 -55.2909 -55.2909 -55.2892 -55.2892 -55.2892 -55.2892
   -55.2892 -55.2892 -55.2892 -55.2892 -55.1883 -55.1883 -55.1882 -55.1882
   -55.1879 -55.1879 -55.1879 -55.1879 -55.1829 -55.1829 -55.1829 -55.1829
   -55.1828 -55.1828 -55.1828 -55.1828 -55.1824 -55.1824 -55.1823 -55.1823
   -55.1823 -55.1823 -55.1823 -55.1823 -16.0334 -16.0334 -16.0323 -16.0323
   -11.9298 -11.9298 -11.9066 -11.9066 -11.8940 -11.8940 -11.8733 -11.8733
   -11.8347 -11.8347 -11.8338 -11.8338 -11.8328 -11.8328 -11.8325 -11.8325
   -11.8263 -11.8263 -11.8259 -11.8259  -9.4510  -9.4510  -9.3171  -9.3171
    -9.2767  -9.2767  -9.2090  -9.2090  -9.1676  -9.1676  -9.0465  -9.0465
    -3.2811  -3.2811  -2.9048  -2.9048  -2.8736  -2.8736  -2.8630  -2.8630
    -2.8627  -2.8627  -2.8513  -2.8513  -2.8416  -2.8416  -2.7374  -2.7374
     1.0670   1.0670   1.2998   1.2998   1.4205   1.4205   2.1637   2.1637
     2.2141   2.2141   2.3148   2.3148   2.5560   2.5560   2.7409   2.7409
     2.7626   2.7626   2.8673   2.8673   2.8821   2.8821   2.9550   2.9550
     2.9933   2.9933   3.0275   3.0275   3.1043   3.1043   3.1812   3.1812
     3.4259   3.4259   3.8889   3.8889

          k = 0.2500-0.4791 0.2273 ( 54324 PWs)   bands (ev):

  -134.7660-134.7660-134.7660-134.7660 -76.4595 -76.4595 -76.4595 -76.4595
   -76.4573 -76.4573 -76.4573 -76.4573 -76.4530 -76.4530 -76.4530 -76.4530
   -55.3415 -55.3415 -55.3415 -55.3415 -55.3283 -55.3283 -55.3283 -55.3283
   -55.3283 -55.3283 -55.3283 -55.3283 -55.3057 -55.3057 -55.3057 -55.3057
   -55.2962 -55.2962 -55.2962 -55.2962 -55.2910 -55.2910 -55.2910 -55.2910
   -55.2909 -55.2909 -55.2909 -55.2909 -55.2893 -55.2893 -55.2892 -55.2892
   -55.2892 -55.2892 -55.2892 -55.2892 -55.1883 -55.1883 -55.1883 -55.1883
   -55.1879 -55.1879 -55.1879 -55.1879 -55.1829 -55.1829 -55.1829 -55.1829
   -55.1828 -55.1828 -55.1828 -55.1828 -55.1824 -55.1824 -55.1824 -55.1824
   -55.1823 -55.1823 -55.1823 -55.1823 -16.0331 -16.0331 -16.0326 -16.0326
   -11.9214 -11.9214 -11.9096 -11.9096 -11.8916 -11.8916 -11.8814 -11.8814
   -11.8345 -11.8345 -11.8341 -11.8341 -11.8327 -11.8327 -11.8326 -11.8326
   -11.8262 -11.8262 -11.8260 -11.8260  -9.4329  -9.4329  -9.3800  -9.3800
    -9.2282  -9.2282  -9.2116  -9.2116  -9.1392  -9.1392  -9.0754  -9.0754
    -3.1763  -3.1763  -2.9547  -2.9547  -2.8808  -2.8808  -2.8768  -2.8768
    -2.8614  -2.8614  -2.8512  -2.8512  -2.8397  -2.8397  -2.8155  -2.8155
     1.2999   1.2999   1.3679   1.3679   1.4747   1.4747   2.1151   2.1151
     2.1886   2.1886   2.2117   2.2117   2.5168   2.5168   2.6400   2.6400
     2.7381   2.7381   2.8216   2.8216   2.8954   2.8954   2.9276   2.9276
     3.0505   3.0505   3.0701   3.0701   3.1373   3.1373   3.1827   3.1827
     3.4347   3.4347   3.6007   3.6007

          k =-0.5000 0.0000 0.0000 ( 54276 PWs)   bands (ev):

  -134.7660-134.7660-134.7659-134.7659 -76.4595 -76.4595 -76.4595 -76.4595
   -76.4573 -76.4573 -76.4573 -76.4573 -76.4530 -76.4530 -76.4530 -76.4530
   -55.3415 -55.3415 -55.3414 -55.3414 -55.3283 -55.3283 -55.3283 -55.3283
   -55.3283 -55.3283 -55.3282 -55.3282 -55.3057 -55.3057 -55.3056 -55.3056
   -55.2962 -55.2962 -55.2961 -55.2961 -55.2910 -55.2910 -55.2910 -55.2910
   -55.2909 -55.2909 -55.2909 -55.2909 -55.2892 -55.2892 -55.2892 -55.2892
   -55.2892 -55.2892 -55.2892 -55.2892 -55.1883 -55.1883 -55.1883 -55.1883
   -55.1879 -55.1879 -55.1878 -55.1878 -55.1829 -55.1829 -55.1829 -55.1829
   -55.1828 -55.1828 -55.1828 -55.1828 -55.1824 -55.1824 -55.1823 -55.1823
   -55.1823 -55.1823 -55.1823 -55.1823 -16.0336 -16.0336 -16.0320 -16.0320
   -11.9246 -11.9246 -11.8992 -11.8992 -11.8991 -11.8991 -11.8809 -11.8809
   -11.8347 -11.8347 -11.8338 -11.8338 -11.8329 -11.8329 -11.8325 -11.8325
   -11.8263 -11.8263 -11.8259 -11.8259  -9.4701  -9.4701  -9.3347  -9.3347
    -9.2761  -9.2761  -9.1539  -9.1539  -9.1479  -9.1479  -9.0821  -9.0821
    -3.2881  -3.2881  -2.9116  -2.9116  -2.8828  -2.8828  -2.8752  -2.8752
    -2.8590  -2.8590  -2.8439  -2.8439  -2.8402  -2.8402  -2.7539  -2.7539
     1.0768   1.0768   1.5910   1.5910   1.7411   1.7411   1.9370   1.9370
     2.0333   2.0333   2.2477   2.2477   2.5165   2.5165   2.6732   2.6732
     2.7453   2.7453   2.8459   2.8459   2.9024   2.9024   2.9885   2.9885
     2.9970   2.9970   3.0480   3.0480   3.1433   3.1433   3.1869   3.1869
     3.2984   3.2984   3.7572   3.7572

          k =-0.5000 0.0000 0.2273 ( 54218 PWs)   bands (ev):

  -134.7659-134.7659-134.7658-134.7658 -76.4595 -76.4595 -76.4595 -76.4595
   -76.4573 -76.4573 -76.4573 -76.4573 -76.4530 -76.4530 -76.4530 -76.4530
   -55.3415 -55.3415 -55.3414 -55.3414 -55.3283 -55.3283 -55.3283 -55.3283
   -55.3282 -55.3282 -55.3282 -55.3282 -55.3056 -55.3056 -55.3056 -55.3056
   -55.2961 -55.2961 -55.2961 -55.2961 -55.2909 -55.2909 -55.2909 -55.2909
   -55.2909 -55.2909 -55.2909 -55.2909 -55.2892 -55.2892 -55.2892 -55.2892
   -55.2892 -55.2892 -55.2892 -55.2892 -55.1883 -55.1883 -55.1882 -55.1882
   -55.1879 -55.1879 -55.1878 -55.1878 -55.1828 -55.1828 -55.1828 -55.1828
   -55.1828 -55.1828 -55.1828 -55.1828 -55.1823 -55.1823 -55.1823 -55.1823
   -55.1823 -55.1823 -55.1823 -55.1823 -16.0335 -16.0335 -16.0322 -16.0322
   -11.9138 -11.9138 -11.8992 -11.8992 -11.8991 -11.8991 -11.8919 -11.8919
   -11.8345 -11.8345 -11.8340 -11.8340 -11.8328 -11.8328 -11.8326 -11.8326
   -11.8262 -11.8262 -11.8260 -11.8260  -9.4521  -9.4521  -9.3982  -9.3982
    -9.1984  -9.1984  -9.1543  -9.1543  -9.1475  -9.1475  -9.1138  -9.1138
    -3.1831  -3.1831  -2.9617  -2.9617  -2.8884  -2.8884  -2.8816  -2.8816
    -2.8535  -2.8535  -2.8481  -2.8481  -2.8427  -2.8427  -2.8354  -2.8354
     1.4121   1.4121   1.6231   1.6231   1.7007   1.7007   1.9021   1.9021
     1.9981   1.9981   2.1649   2.1649   2.5708   2.5708   2.6847   2.6847
     2.6991   2.6991   2.7528   2.7528   2.8760   2.8760   2.9353   2.9353
     3.0646   3.0646   3.0884   3.0884   3.1347   3.1347   3.1795   3.1795
     3.3065   3.3065   3.4456   3.4456

          k =-0.5000 0.2396 0.0000 ( 54288 PWs)   bands (ev):

  -134.7660-134.7660-134.7659-134.7659 -76.4595 -76.4595 -76.4595 -76.4595
   -76.4573 -76.4573 -76.4573 -76.4573 -76.4530 -76.4530 -76.4530 -76.4530
   -55.3415 -55.3415 -55.3414 -55.3414 -55.3284 -55.3284 -55.3283 -55.3283
   -55.3283 -55.3283 -55.3282 -55.3282 -55.3057 -55.3057 -55.3057 -55.3057
   -55.2962 -55.2962 -55.2961 -55.2961 -55.2910 -55.2910 -55.2910 -55.2910
   -55.2909 -55.2909 -55.2909 -55.2909 -55.2892 -55.2892 -55.2892 -55.2892
   -55.2892 -55.2892 -55.2892 -55.2892 -55.1883 -55.1883 -55.1883 -55.1883
   -55.1879 -55.1879 -55.1878 -55.1878 -55.1829 -55.1829 -55.1829 -55.1829
   -55.1828 -55.1828 -55.1828 -55.1828 -55.1824 -55.1824 -55.1824 -55.1824
   -55.1823 -55.1823 -55.1823 -55.1823 -16.0335 -16.0335 -16.0321 -16.0321
   -11.9298 -11.9298 -11.9066 -11.9066 -11.8940 -11.8940 -11.8733 -11.8733
   -11.8347 -11.8347 -11.8338 -11.8338 -11.8328 -11.8328 -11.8325 -11.8325
   -11.8263 -11.8263 -11.8259 -11.8259  -9.4474  -9.4474  -9.3114  -9.3114
    -9.2771  -9.2771  -9.2134  -9.2134  -9.1737  -9.1737  -9.0466  -9.0466
    -3.2762  -3.2762  -2.8973  -2.8973  -2.8773  -2.8773  -2.8660  -2.8660
    -2.8608  -2.8608  -2.8453  -2.8453  -2.8428  -2.8428  -2.7394  -2.7394
     1.0660   1.0660   1.2925   1.2925   1.4263   1.4263   2.1358   2.1358
     2.2210   2.2210   2.3500   2.3500   2.5686   2.5686   2.7286   2.7286
     2.7846   2.7846   2.8547   2.8547   2.9189   2.9189   2.9655   2.9655
     2.9684   2.9684   2.9946   2.9946   3.0871   3.0871   3.1984   3.1984
     3.3840   3.3840   3.8689   3.8689

          k =-0.5000 0.2396 0.2273 ( 54280 PWs)   bands (ev):

  -134.7659-134.7659-134.7659-134.7659 -76.4595 -76.4595 -76.4595 -76.4595
   -76.4573 -76.4573 -76.4573 -76.4573 -76.4530 -76.4530 -76.4530 -76.4530
   -55.3415 -55.3415 -55.3414 -55.3414 -55.3283 -55.3283 -55.3283 -55.3283
   -55.3283 -55.3283 -55.3283 -55.3283 -55.3056 -55.3056 -55.3056 -55.3056
   -55.2962 -55.2962 -55.2961 -55.2961 -55.2910 -55.2910 -55.2909 -55.2909
   -55.2909 -55.2909 -55.2909 -55.2909 -55.2892 -55.2892 -55.2892 -55.2892
   -55.2892 -55.2892 -55.2892 -55.2892 -55.1883 -55.1883 -55.1882 -55.1882
   -55.1879 -55.1879 -55.1878 -55.1878 -55.1829 -55.1829 -55.1828 -55.1828
   -55.1828 -55.1828 -55.1828 -55.1828 -55.1824 -55.1824 -55.1824 -55.1824
   -55.1823 -55.1823 -55.1823 -55.1823 -16.0333 -16.0333 -16.0323 -16.0323
   -11.9214 -11.9214 -11.9096 -11.9096 -11.8916 -11.8916 -11.8814 -11.8814
   -11.8345 -11.8345 -11.8341 -11.8341 -11.8327 -11.8327 -11.8326 -11.8326
   -11.8262 -11.8262 -11.8260 -11.8260  -9.4294  -9.4294  -9.3762  -9.3762
    -9.2310  -9.2310  -9.2138  -9.2138  -9.1426  -9.1426  -9.0760  -9.0760
    -3.1710  -3.1710  -2.9474  -2.9474  -2.8819  -2.8819  -2.8747  -2.8747
    -2.8564  -2.8564  -2.8483  -2.8483  -2.8437  -2.8437  -2.8222  -2.8222
     1.2988   1.2988   1.3649   1.3649   1.4734   1.4734   2.0950   2.0950
     2.1968   2.1968   2.2149   2.2149   2.5315   2.5315   2.6586   2.6586
     2.7406   2.7406   2.8371   2.8371   2.9266   2.9266   2.9614   2.9614
     3.0193   3.0193   3.0419   3.0419   3.1160   3.1160   3.1860   3.1860
     3.3922   3.3922   3.5665   3.5665

          k =-0.5000-0.4791 0.0000 ( 54220 PWs)   bands (ev):

  -134.7659-134.7659-134.7658-134.7658 -76.4595 -76.4595 -76.4595 -76.4595
   -76.4573 -76.4573 -76.4573 -76.4573 -76.4530 -76.4530 -76.4530 -76.4530
   -55.3415 -55.3415 -55.3414 -55.3414 -55.3283 -55.3283 -55.3283 -55.3283
   -55.3283 -55.3283 -55.3282 -55.3282 -55.3056 -55.3056 -55.3056 -55.3056
   -55.2961 -55.2961 -55.2961 -55.2961 -55.2909 -55.2909 -55.2909 -55.2909
   -55.2909 -55.2909 -55.2909 -55.2909 -55.2892 -55.2892 -55.2892 -55.2892
   -55.2892 -55.2892 -55.2892 -55.2892 -55.1883 -55.1883 -55.1883 -55.1883
   -55.1879 -55.1879 -55.1879 -55.1879 -55.1829 -55.1829 -55.1828 -55.1828
   -55.1828 -55.1828 -55.1828 -55.1828 -55.1824 -55.1824 -55.1823 -55.1823
   -55.1823 -55.1823 -55.1823 -55.1823 -16.0333 -16.0333 -16.0323 -16.0323
   -11.9338 -11.9338 -11.9117 -11.9117 -11.8900 -11.8900 -11.8683 -11.8683
   -11.8347 -11.8347 -11.8338 -11.8338 -11.8328 -11.8328 -11.8324 -11.8324
   -11.8263 -11.8263 -11.8259 -11.8259  -9.4150  -9.4150  -9.2829  -9.2829
    -9.2715  -9.2715  -9.2619  -9.2619  -9.2161  -9.2161  -9.0269  -9.0269
    -3.2644  -3.2644  -2.8791  -2.8791  -2.8768  -2.8768  -2.8588  -2.8588
    -2.8562  -2.8562  -2.8479  -2.8479  -2.8470  -2.8470  -2.7246  -2.7246
     1.0509   1.0509   1.1130   1.1130   1.2575   1.2575   2.1498   2.1498
     2.2726   2.2726   2.5787   2.5787   2.5945   2.5945   2.7165   2.7165
     2.7902   2.7902   2.8827   2.8827   2.8915   2.8915   2.9427   2.9427
     2.9663   2.9663   2.9753   2.9753   2.9996   2.9996   3.2530   3.2530
     3.4875   3.4875   4.0027   4.0027

          k =-0.5000-0.4791 0.2273 ( 54312 PWs)   bands (ev):

  -134.7660-134.7660-134.7659-134.7659 -76.4595 -76.4595 -76.4595 -76.4595
   -76.4573 -76.4573 -76.4573 -76.4573 -76.4530 -76.4530 -76.4530 -76.4530
   -55.3415 -55.3415 -55.3415 -55.3415 -55.3283 -55.3283 -55.3283 -55.3283
   -55.3283 -55.3283 -55.3283 -55.3283 -55.3057 -55.3057 -55.3056 -55.3056
   -55.2961 -55.2961 -55.2961 -55.2961 -55.2910 -55.2910 -55.2909 -55.2909
   -55.2909 -55.2909 -55.2909 -55.2909 -55.2892 -55.2892 -55.2892 -55.2892
   -55.2892 -55.2892 -55.2892 -55.2892 -55.1883 -55.1883 -55.1883 -55.1883
   -55.1879 -55.1879 -55.1879 -55.1879 -55.1829 -55.1829 -55.1829 -55.1829
   -55.1828 -55.1828 -55.1828 -55.1828 -55.1824 -55.1824 -55.1824 -55.1824
   -55.1823 -55.1823 -55.1823 -55.1823 -16.0331 -16.0331 -16.0325 -16.0325
   -11.9262 -11.9262 -11.9151 -11.9151 -11.8868 -11.8868 -11.8759 -11.8759
   -11.8345 -11.8345 -11.8341 -11.8341 -11.8327 -11.8327 -11.8325 -11.8325
   -11.8262 -11.8262 -11.8260 -11.8260  -9.3962  -9.3962  -9.3413  -9.3413
    -9.2705  -9.2705  -9.2683  -9.2683  -9.1391  -9.1391  -9.0583  -9.0583
    -3.1591  -3.1591  -2.9340  -2.9340  -2.8723  -2.8723  -2.8708  -2.8708
    -2.8617  -2.8617  -2.8465  -2.8465  -2.8393  -2.8393  -2.8127  -2.8127
     1.1420   1.1420   1.1967   1.1967   1.4475   1.4475   2.1640   2.1640
     2.2011   2.2011   2.2873   2.2873   2.5691   2.5691   2.6398   2.6398
     2.8418   2.8418   2.8824   2.8824   2.9156   2.9156   2.9245   2.9245
     2.9696   2.9696   2.9910   2.9910   3.0970   3.0970   3.2223   3.2223
     3.5168   3.5168   3.7209   3.7209

     highest occupied level (ev):     4.5800

!    total energy              =   -5116.27788286 Ry
     estimated scf accuracy    <          8.4E-09 Ry

     The total energy is the sum of the following terms:
     one-electron contribution =   -3888.38876311 Ry
     hartree contribution      =    1893.26257337 Ry
     xc contribution           =    -861.54313458 Ry
     ewald contribution        =   -2259.60855854 Ry

     convergence has been achieved in  11 iterations

     Forces acting on atoms (cartesian axes, Ry/au):

     atom    1 type  1   force =    -0.00068547    0.00023838    0.00000000
     atom    2 type  1   force =    -0.00068547   -0.00023838    0.00000000
     atom    3 type  1   force =     0.00068547    0.00023838   -0.00000000
     atom    4 type  1   force =     0.00068547   -0.00023838    0.00000000
     atom    5 type  2   force =     0.00000000   -0.00000000    0.00000000
     atom    6 type  2   force =     0.00000000    0.00000000   -0.00000000
     atom    7 type  2   force =     0.00000000    0.00000000   -0.00000000
     atom    8 type  2   force =     0.00000000    0.00000000    0.00000000
     atom    9 type  3   force =     0.00137594   -0.00054824    0.00000000
     atom   10 type  3   force =     0.00137594    0.00054824    0.00000000
     atom   11 type  3   force =     0.00076367   -0.00070527    0.00088890
     atom   12 type  3   force =    -0.00076367    0.00070527   -0.00088890
     atom   13 type  3   force =     0.00076367    0.00070527   -0.00088890
     atom   14 type  3   force =    -0.00076367   -0.00070527    0.00088890
     atom   15 type  3   force =     0.00076367    0.00070527    0.00088890
     atom   16 type  3   force =    -0.00076367   -0.00070527   -0.00088890
     atom   17 type  3   force =    -0.00076367    0.00070527    0.00088890
     atom   18 type  3   force =     0.00076367   -0.00070527   -0.00088890
     atom   19 type  3   force =    -0.00137594   -0.00054824    0.00000000
     atom   20 type  3   force =    -0.00137594    0.00054824    0.00000000

     Total force =     0.005084     Total SCF correction =     0.000070


     Computing stress (Cartesian axis) and pressure

          total   stress  (Ry/bohr**3)                   (kbar)     P=        0.23
   0.00000338   0.00000000   0.00000000            0.50        0.00        0.00
   0.00000000   0.00000350   0.00000000            0.00        0.52        0.00
   0.00000000   0.00000000  -0.00000227            0.00        0.00       -0.33


     Writing output data file ./cspbbr3_ecut70.save/

     init_run     :    189.47s CPU    386.88s WALL (       1 calls)
     electrons    :   6735.82s CPU  11260.92s WALL (       1 calls)
     forces       :     99.04s CPU    161.19s WALL (       1 calls)
     stress       :    760.22s CPU    883.64s WALL (       1 calls)

     Called by init_run:
     wfcinit      :    170.14s CPU    347.86s WALL (       1 calls)
     potinit      :      6.65s CPU     13.51s WALL (       1 calls)
     hinit0       :     12.22s CPU     24.55s WALL (       1 calls)

     Called by electrons:
     c_bands      :   6059.53s CPU  10146.34s WALL (      12 calls)
     sum_band     :    669.52s CPU   1103.16s WALL (      12 calls)
     v_of_rho     :      5.99s CPU     10.22s WALL (      12 calls)
     mix_rho      :      1.06s CPU      1.86s WALL (      12 calls)

     Called by c_bands:
     init_us_2    :     49.42s CPU     81.74s WALL (     486 calls)
     cegterg      :   5594.43s CPU   9373.30s WALL (     216 calls)

     Called by *egterg:
     cdiaghg      :     67.78s CPU    112.41s WALL (     896 calls)
     h_psi        :   4293.29s CPU   7228.97s WALL (     932 calls)
     g_psi        :     19.03s CPU     31.20s WALL (     698 calls)

     Called by h_psi:
     h_psi:calbec :    567.18s CPU    947.04s WALL (     932 calls)
     vloc_psi     :   3161.24s CPU   5307.99s WALL (     932 calls)
     add_vuspsi   :    552.44s CPU    922.94s WALL (     932 calls)

     General routines
     calbec       :    659.89s CPU   1090.87s WALL (    1022 calls)
     fft          :      4.16s CPU      7.16s WALL (     145 calls)
     ffts         :      0.33s CPU      0.58s WALL (      12 calls)
     fftw         :   3368.70s CPU   5614.91s WALL (  219144 calls)

     Parallel routines
     fft_scatt_xy :    358.01s CPU    594.32s WALL (  219301 calls)
     fft_scatt_yz :    771.75s CPU   1161.34s WALL (  219301 calls)

     PWSCF        :      2h 9m CPU      3h31m WALL


   This run was terminated on:  19:17:25  25Jul2026            

=------------------------------------------------------------------------------=
   JOB DONE.
=------------------------------------------------------------------------------=
