
     Program PWSCF v.6.7MaX starts on 25Jul2026 at 13:42: 1 

     This program is part of the open-source Quantum ESPRESSO suite
     for quantum simulation of materials; please cite
         "P. Giannozzi et al., J. Phys.:Condens. Matter 21 395502 (2009);
         "P. Giannozzi et al., J. Phys.:Condens. Matter 29 465901 (2017);
          URL http://www.quantum-espresso.org", 
     in publications or presentations arising from this work. More details at
     http://www.quantum-espresso.org/quote

     Parallel version (MPI), running on     2 processors

     MPI processes distributed on     1 nodes
     R & G space division:  proc/nbgrp/npool/nimage =       2
     Reading input from bulk_kpoints554.in

     Current dimensions of program PWSCF are:
     Max number of different atomic species (ntypx) = 10
     Max number of k-points (npk) =  40000
     Max angular momentum in pseudopotentials (lmaxx) =  3
     Message from routine read_pp_mesh:
     mesh size missing, using the one in header
     Message from routine read_pp_mesh:
     mesh size missing, using the one in header
     Message from routine read_pp_mesh:
     mesh size missing, using the one in header

     Subspace diagonalization in iterative solution of the eigenvalue problem:
     a serial algorithm will be used

     Message from routine setup:
     using ibrav=0 with symmetry is DISCOURAGED, use correct ibrav instead

     Parallelization info
     --------------------
     sticks:   dense  smooth     PW     G-vecs:    dense   smooth      PW
     Min        2718    2718    724               217154   217154   29816
     Max        2719    2719    725               217157   217157   29817
     Sum        5437    5437   1449               434311   434311   59633



     bravais-lattice index     =            0
     lattice parameter (alat)  =      15.3088  a.u.
     unit-cell volume          =    5489.9762 (a.u.)^3
     number of atoms/cell      =           20
     number of atomic types    =            3
     number of electrons       =       328.00
     number of Kohn-Sham states=          164
     kinetic-energy cutoff     =      70.0000  Ry
     charge density cutoff     =     280.0000  Ry
     scf convergence threshold =      1.0E-08
     mixing beta               =       0.3000
     number of iterations used =            8  plain     mixing
     Exchange-correlation= PBE
                           (   1   4   3   4   0   0   0)

     celldm(1)=  15.308820  celldm(2)=   0.000000  celldm(3)=   0.000000
     celldm(4)=   0.000000  celldm(5)=   0.000000  celldm(6)=   0.000000

     crystal axes: (cart. coord. in units of alat)
               a(1) = (   1.000000   0.000000   0.000000 )  
               a(2) = (   0.000000   1.043546   0.000000 )  
               a(3) = (   0.000000   0.000000   1.466337 )  

     reciprocal axes: (cart. coord. in units 2 pi/alat)
               b(1) = (  1.000000  0.000000  0.000000 )  
               b(2) = (  0.000000  0.958271  0.000000 )  
               b(3) = (  0.000000  0.000000  0.681971 )  


     PseudoPot. # 1 for Cs read from file:
     /usr/share/espresso/pseudo/Cs.upf
     MD5 check sum: d01c53d012be9123745781bcb8b00a26
     Pseudo is Norm-conserving + core correction, Zval =  9.0
     Generated using ONCVPSP code by D. R. Hamann
     Using radial grid of 2414 points,  8 beta functions with: 
                l(1) =   0
                l(2) =   0
                l(3) =   1
                l(4) =   1
                l(5) =   2
                l(6) =   2
                l(7) =   3
                l(8) =   3

     PseudoPot. # 2 for Pb read from file:
     /usr/share/espresso/pseudo/Pb.upf
     MD5 check sum: ef32195dce39f3be2bd8d55c45026041
     Pseudo is Norm-conserving + core correction, Zval = 22.0
     Generated using ONCVPSP code by D. R. Hamann
     Using radial grid of 1692 points,  7 beta functions with: 
                l(1) =   0
                l(2) =   0
                l(3) =   1
                l(4) =   1
                l(5) =   2
                l(6) =   2
                l(7) =   3

     PseudoPot. # 3 for Br read from file:
     /usr/share/espresso/pseudo/Br.upf
     MD5 check sum: 89331df975851c81b2ee53e8f046c6dd
     Pseudo is Norm-conserving + core correction, Zval = 17.0
     Generated using ONCVPSP code by D. R. Hamann
     Using radial grid of 1098 points,  6 beta functions with: 
                l(1) =   0
                l(2) =   0
                l(3) =   1
                l(4) =   1
                l(5) =   2
                l(6) =   2

     atomic species   valence    mass     pseudopotential
        Cs             9.00   132.90545     Cs( 1.00)
        Pb            22.00   207.20000     Pb( 1.00)
        Br            17.00    79.90400     Br( 1.00)

      8 Sym. Ops., with inversion, found ( 6 have fractional translation)



   Cartesian axes

     site n.     atom                  positions (alat units)
         1           Cs  tau(   1) = (   0.5194521   0.4589896   0.3665843  )
         2           Cs  tau(   2) = (   0.0194521   0.0627833   1.0997528  )
         3           Cs  tau(   3) = (   0.9805479   0.9807625   0.3665843  )
         4           Cs  tau(   4) = (   0.4805479   0.5845563   1.0997528  )
         5           Pb  tau(   5) = (   0.5000000   0.0000000   0.7331685  )
         6           Pb  tau(   6) = (   0.0000000   0.5217729   0.0000000  )
         7           Pb  tau(   7) = (   0.0000000   0.5217729   0.7331685  )
         8           Pb  tau(   8) = (   0.5000000   0.0000000   0.0000000  )
         9           Br  tau(   9) = (   0.5596655   1.0370139   1.0997528  )
        10           Br  tau(  10) = (   0.0596655   0.5283050   0.3665843  )
        11           Br  tau(  11) = (   0.8027919   0.2097759   0.0464848  )
        12           Br  tau(  12) = (   0.1972081   0.8337700   1.4198523  )
        13           Br  tau(  13) = (   0.3027919   0.3119971   1.4198523  )
        14           Br  tau(  14) = (   0.6972081   0.7315488   0.0464848  )
        15           Br  tau(  15) = (   0.3027919   0.3119971   0.7796533  )
        16           Br  tau(  16) = (   0.6972081   0.7315488   0.6866838  )
        17           Br  tau(  17) = (   0.1972081   0.8337700   0.7796533  )
        18           Br  tau(  18) = (   0.8027919   0.2097759   0.6866838  )
        19           Br  tau(  19) = (   0.9403345   0.5152409   1.0997528  )
        20           Br  tau(  20) = (   0.4403345   0.0065320   0.3665843  )

     number of k points=    27
                       cart. coord. in units 2pi/alat
        k(    1) = (   0.0000000   0.0000000   0.0000000), wk =   0.0200000
        k(    2) = (   0.0000000   0.0000000   0.1704929), wk =   0.0400000
        k(    3) = (   0.0000000   0.0000000  -0.3409857), wk =   0.0200000
        k(    4) = (   0.0000000   0.1916542   0.0000000), wk =   0.0400000
        k(    5) = (   0.0000000   0.1916542   0.1704929), wk =   0.0800000
        k(    6) = (   0.0000000   0.1916542  -0.3409857), wk =   0.0400000
        k(    7) = (   0.0000000   0.3833085   0.0000000), wk =   0.0400000
        k(    8) = (   0.0000000   0.3833085   0.1704929), wk =   0.0800000
        k(    9) = (   0.0000000   0.3833085  -0.3409857), wk =   0.0400000
        k(   10) = (   0.2000000   0.0000000   0.0000000), wk =   0.0400000
        k(   11) = (   0.2000000   0.0000000   0.1704929), wk =   0.0800000
        k(   12) = (   0.2000000   0.0000000  -0.3409857), wk =   0.0400000
        k(   13) = (   0.2000000   0.1916542   0.0000000), wk =   0.0800000
        k(   14) = (   0.2000000   0.1916542   0.1704929), wk =   0.1600000
        k(   15) = (   0.2000000   0.1916542  -0.3409857), wk =   0.0800000
        k(   16) = (   0.2000000   0.3833085   0.0000000), wk =   0.0800000
        k(   17) = (   0.2000000   0.3833085   0.1704929), wk =   0.1600000
        k(   18) = (   0.2000000   0.3833085  -0.3409857), wk =   0.0800000
        k(   19) = (   0.4000000   0.0000000   0.0000000), wk =   0.0400000
        k(   20) = (   0.4000000   0.0000000   0.1704929), wk =   0.0800000
        k(   21) = (   0.4000000   0.0000000  -0.3409857), wk =   0.0400000
        k(   22) = (   0.4000000   0.1916542   0.0000000), wk =   0.0800000
        k(   23) = (   0.4000000   0.1916542   0.1704929), wk =   0.1600000
        k(   24) = (   0.4000000   0.1916542  -0.3409857), wk =   0.0800000
        k(   25) = (   0.4000000   0.3833085   0.0000000), wk =   0.0800000
        k(   26) = (   0.4000000   0.3833085   0.1704929), wk =   0.1600000
        k(   27) = (   0.4000000   0.3833085  -0.3409857), wk =   0.0800000

     Dense  grid:   434311 G-vectors     FFT dimensions: (  90,  90, 120)

     Estimated max dynamical RAM per process >       2.45 GB

     Estimated total dynamical RAM >       4.90 GB

     Initial potential from superposition of free atoms

     starting charge  327.83857, renormalised to  328.00000
     Starting wfcs are  180 randomized atomic wfcs

     total cpu time spent up to now is      531.0 secs

     Self-consistent Calculation

     iteration #  1     ecut=    70.00 Ry     beta= 0.30
     Davidson diagonalization with overlap
     ethr =  1.00E-02,  avg # of iterations =  2.0

     Threshold (ethr) on eigenvalues was too large:
     Diagonalizing with lowered threshold

     Davidson diagonalization with overlap
     ethr =  2.09E-04,  avg # of iterations =  3.0

     total cpu time spent up to now is     3383.8 secs

     total energy              =   -5116.22753883 Ry
     estimated scf accuracy    <       0.61080275 Ry

     iteration #  2     ecut=    70.00 Ry     beta= 0.30
     Davidson diagonalization with overlap
     ethr =  1.86E-04,  avg # of iterations =  2.0

     total cpu time spent up to now is     4789.4 secs

     total energy              =   -5116.25469317 Ry
     estimated scf accuracy    <       0.09962950 Ry

     iteration #  3     ecut=    70.00 Ry     beta= 0.30
     Davidson diagonalization with overlap
     ethr =  3.04E-05,  avg # of iterations =  3.4

     total cpu time spent up to now is     6253.9 secs

     total energy              =   -5116.27556040 Ry
     estimated scf accuracy    <       0.01173639 Ry

     iteration #  4     ecut=    70.00 Ry     beta= 0.30
     Davidson diagonalization with overlap
     ethr =  3.58E-06,  avg # of iterations =  2.1

     total cpu time spent up to now is     7036.7 secs

     total energy              =   -5116.27762171 Ry
     estimated scf accuracy    <       0.00129546 Ry

     iteration #  5     ecut=    70.00 Ry     beta= 0.30
     Davidson diagonalization with overlap
     ethr =  3.95E-07,  avg # of iterations =  4.4

     total cpu time spent up to now is     8384.5 secs

     total energy              =   -5116.27795853 Ry
     estimated scf accuracy    <       0.00022567 Ry

     iteration #  6     ecut=    70.00 Ry     beta= 0.30
     Davidson diagonalization with overlap
     ethr =  6.88E-08,  avg # of iterations =  4.1

     total cpu time spent up to now is    10183.5 secs

     total energy              =   -5116.27798229 Ry
     estimated scf accuracy    <       0.00013791 Ry

     iteration #  7     ecut=    70.00 Ry     beta= 0.30
     Davidson diagonalization with overlap
     ethr =  4.20E-08,  avg # of iterations =  2.8

     total cpu time spent up to now is    11662.1 secs

     total energy              =   -5116.27802439 Ry
     estimated scf accuracy    <       0.00000711 Ry

     iteration #  8     ecut=    70.00 Ry     beta= 0.30
     Davidson diagonalization with overlap
     ethr =  2.17E-09,  avg # of iterations =  3.5

     total cpu time spent up to now is    13020.3 secs

     total energy              =   -5116.27802517 Ry
     estimated scf accuracy    <       0.00000146 Ry

     iteration #  9     ecut=    70.00 Ry     beta= 0.30
     Davidson diagonalization with overlap
     ethr =  4.45E-10,  avg # of iterations =  4.0

     total cpu time spent up to now is    14623.7 secs

     total energy              =   -5116.27802584 Ry
     estimated scf accuracy    <       0.00000009 Ry

     iteration # 10     ecut=    70.00 Ry     beta= 0.30
     Davidson diagonalization with overlap
     ethr =  2.77E-11,  avg # of iterations =  4.9

     total cpu time spent up to now is    16069.3 secs

     total energy              =   -5116.27802587 Ry
     estimated scf accuracy    <       0.00000004 Ry

     iteration # 11     ecut=    70.00 Ry     beta= 0.30
     Davidson diagonalization with overlap
     ethr =  1.14E-11,  avg # of iterations =  2.1

     total cpu time spent up to now is    17403.2 secs

     End of self-consistent calculation

          k = 0.0000 0.0000 0.0000 ( 54325 PWs)   bands (ev):

  -134.7657-134.7656-134.7655-134.7654 -76.4591 -76.4591 -76.4591 -76.4591
   -76.4569 -76.4569 -76.4569 -76.4569 -76.4526 -76.4526 -76.4526 -76.4526
   -55.3429 -55.3429 -55.3429 -55.3428 -55.3284 -55.3283 -55.3283 -55.3283
   -55.3282 -55.3282 -55.3282 -55.3282 -55.3070 -55.3070 -55.3069 -55.3069
   -55.2975 -55.2975 -55.2974 -55.2974 -55.2909 -55.2909 -55.2909 -55.2909
   -55.2909 -55.2909 -55.2908 -55.2908 -55.2892 -55.2892 -55.2892 -55.2892
   -55.2891 -55.2891 -55.2891 -55.2891 -55.1893 -55.1893 -55.1893 -55.1893
   -55.1890 -55.1889 -55.1889 -55.1889 -55.1828 -55.1828 -55.1828 -55.1828
   -55.1827 -55.1827 -55.1827 -55.1827 -55.1824 -55.1823 -55.1823 -55.1822
   -55.1822 -55.1822 -55.1822 -55.1822 -16.0351 -16.0338 -16.0319 -16.0310
   -11.9344 -11.9308 -11.9307 -11.9141 -11.8924 -11.8687 -11.8650 -11.8650
   -11.8344 -11.8339 -11.8336 -11.8330 -11.8329 -11.8326 -11.8319 -11.8315
   -11.8264 -11.8260 -11.8252 -11.8249  -9.5761  -9.4159  -9.2778  -9.2735
    -9.2716  -9.2637  -9.2519  -9.2461  -9.2328  -9.0393  -9.0329  -9.0311
    -3.7089  -3.2477  -2.9101  -2.9000  -2.8949  -2.8883  -2.8744  -2.8736
    -2.8700  -2.8624  -2.8559  -2.8458  -2.8432  -2.8281  -2.7594  -2.1788
     0.9867   1.0091   1.0242   1.1065   1.1230   1.1941   2.1293   2.3300
     2.3791   2.3976   2.4059   2.5141   2.6315   2.7152   2.7351   2.7447
     2.7964   2.8161   2.8443   2.8472   2.8949   2.9000   2.9087   2.9218
     2.9390   3.0560   3.1042   3.1165   3.1645   3.1734   3.2406   3.2753
     3.4106   3.5617   4.0105   4.5800

          k = 0.0000 0.0000 0.1705 ( 54294 PWs)   bands (ev):

  -134.7656-134.7655-134.7655-134.7654 -76.4591 -76.4591 -76.4591 -76.4591
   -76.4569 -76.4569 -76.4569 -76.4569 -76.4526 -76.4526 -76.4526 -76.4526
   -55.3429 -55.3429 -55.3429 -55.3428 -55.3283 -55.3283 -55.3283 -55.3283
   -55.3282 -55.3282 -55.3282 -55.3282 -55.3070 -55.3069 -55.3069 -55.3069
   -55.2975 -55.2975 -55.2975 -55.2974 -55.2909 -55.2909 -55.2909 -55.2909
   -55.2909 -55.2909 -55.2908 -55.2908 -55.2892 -55.2892 -55.2892 -55.2892
   -55.2891 -55.2891 -55.2891 -55.2891 -55.1893 -55.1893 -55.1893 -55.1893
   -55.1889 -55.1889 -55.1889 -55.1889 -55.1828 -55.1828 -55.1828 -55.1827
   -55.1827 -55.1827 -55.1827 -55.1826 -55.1823 -55.1823 -55.1823 -55.1822
   -55.1822 -55.1822 -55.1822 -55.1822 -16.0349 -16.0340 -16.0318 -16.0312
   -11.9308 -11.9307 -11.9284 -11.9076 -11.8986 -11.8755 -11.8650 -11.8650
   -11.8343 -11.8338 -11.8337 -11.8332 -11.8329 -11.8326 -11.8318 -11.8316
   -11.8264 -11.8261 -11.8252 -11.8249  -9.5628  -9.4620  -9.2712  -9.2667
    -9.2650  -9.2515  -9.2470  -9.2385  -9.2196  -9.0639  -9.0326  -9.0313
    -3.6492  -3.3234  -2.9074  -2.8984  -2.8972  -2.8878  -2.8724  -2.8698
    -2.8667  -2.8603  -2.8598  -2.8517  -2.8486  -2.8316  -2.6921  -2.2874
     1.0206   1.0377   1.0729   1.1077   1.2437   1.4057   2.1625   2.2158
     2.3327   2.4182   2.4188   2.4715   2.5285   2.5657   2.7246   2.7498
     2.7550   2.8656   2.8657   2.8687   2.8755   2.9110   2.9402   2.9441
     2.9820   3.0597   3.0676   3.0939   3.1099   3.1551   3.2207   3.2374
     3.3990   3.4501   4.0370   4.3677

          k = 0.0000 0.0000-0.3410 ( 54388 PWs)   bands (ev):

  -134.7657-134.7657-134.7655-134.7655 -76.4591 -76.4591 -76.4591 -76.4591
   -76.4569 -76.4569 -76.4569 -76.4569 -76.4526 -76.4526 -76.4526 -76.4526
   -55.3429 -55.3429 -55.3429 -55.3429 -55.3283 -55.3283 -55.3283 -55.3283
   -55.3283 -55.3283 -55.3282 -55.3282 -55.3070 -55.3070 -55.3070 -55.3070
   -55.2975 -55.2975 -55.2975 -55.2975 -55.2909 -55.2909 -55.2909 -55.2909
   -55.2909 -55.2909 -55.2909 -55.2909 -55.2892 -55.2892 -55.2892 -55.2892
   -55.2891 -55.2891 -55.2891 -55.2891 -55.1893 -55.1893 -55.1893 -55.1893
   -55.1890 -55.1890 -55.1889 -55.1889 -55.1828 -55.1828 -55.1828 -55.1828
   -55.1828 -55.1828 -55.1827 -55.1827 -55.1823 -55.1823 -55.1823 -55.1823
   -55.1823 -55.1823 -55.1823 -55.1823 -16.0344 -16.0344 -16.0315 -16.0315
   -11.9307 -11.9307 -11.9136 -11.9136 -11.8916 -11.8916 -11.8650 -11.8650
   -11.8340 -11.8340 -11.8335 -11.8335 -11.8328 -11.8328 -11.8317 -11.8317
   -11.8262 -11.8262 -11.8251 -11.8251  -9.5233  -9.5233  -9.2681  -9.2681
    -9.2525  -9.2525  -9.2492  -9.2492  -9.1308  -9.1308  -9.0320  -9.0320
    -3.4947  -3.4947  -2.9018  -2.9018  -2.8921  -2.8921  -2.8685  -2.8685
    -2.8616  -2.8616  -2.8573  -2.8573  -2.8471  -2.8471  -2.5089  -2.5089
     1.0487   1.0487   1.0717   1.0717   1.7766   1.7766   1.9294   1.9294
     2.2473   2.2473   2.4553   2.4553   2.4801   2.4801   2.7443   2.7443
     2.7987   2.7987   2.8752   2.8752   2.9072   2.9072   2.9433   2.9433
     3.0391   3.0391   3.0717   3.0717   3.1437   3.1437   3.1574   3.1574
     3.3922   3.3922   4.1370   4.1370

          k = 0.0000 0.1917 0.0000 ( 54313 PWs)   bands (ev):

  -134.7656-134.7655-134.7655-134.7655 -76.4591 -76.4591 -76.4591 -76.4591
   -76.4569 -76.4569 -76.4569 -76.4569 -76.4526 -76.4526 -76.4526 -76.4526
   -55.3429 -55.3429 -55.3428 -55.3428 -55.3283 -55.3283 -55.3283 -55.3283
   -55.3282 -55.3282 -55.3282 -55.3282 -55.3070 -55.3070 -55.3069 -55.3069
   -55.2975 -55.2975 -55.2975 -55.2974 -55.2909 -55.2909 -55.2909 -55.2909
   -55.2909 -55.2909 -55.2909 -55.2908 -55.2892 -55.2892 -55.2892 -55.2892
   -55.2892 -55.2891 -55.2891 -55.2891 -55.1893 -55.1893 -55.1893 -55.1893
   -55.1889 -55.1889 -55.1889 -55.1889 -55.1828 -55.1828 -55.1828 -55.1828
   -55.1828 -55.1827 -55.1827 -55.1827 -55.1823 -55.1823 -55.1822 -55.1822
   -55.1822 -55.1822 -55.1822 -55.1822 -16.0348 -16.0335 -16.0322 -16.0313
   -11.9325 -11.9248 -11.9247 -11.9160 -11.8901 -11.8716 -11.8715 -11.8709
   -11.8344 -11.8340 -11.8335 -11.8331 -11.8328 -11.8325 -11.8320 -11.8316
   -11.8263 -11.8259 -11.8254 -11.8250  -9.5593  -9.4024  -9.3469  -9.2794
    -9.2776  -9.2736  -9.2312  -9.2256  -9.1693  -9.0541  -9.0517  -9.0462
    -3.6348  -3.1733  -2.9228  -2.9112  -2.8941  -2.8906  -2.8851  -2.8734
    -2.8679  -2.8600  -2.8518  -2.8441  -2.8430  -2.8299  -2.8233  -2.3139
     1.0090   1.1282   1.1668   1.2145   1.2338   1.2721   2.1661   2.3030
     2.3177   2.3233   2.3987   2.4168   2.4838   2.5470   2.6489   2.7279
     2.8022   2.8084   2.8678   2.9002   2.9008   2.9092   2.9230   2.9321
     2.9660   3.0352   3.0618   3.0792   3.1551   3.1562   3.2356   3.2638
     3.4230   3.5996   3.7726   4.3258

          k = 0.0000 0.1917 0.1705 ( 54319 PWs)   bands (ev):

  -134.7656-134.7655-134.7655-134.7655 -76.4591 -76.4591 -76.4591 -76.4591
   -76.4569 -76.4569 -76.4569 -76.4569 -76.4526 -76.4526 -76.4526 -76.4526
   -55.3429 -55.3429 -55.3429 -55.3428 -55.3283 -55.3283 -55.3283 -55.3283
   -55.3282 -55.3282 -55.3282 -55.3282 -55.3070 -55.3070 -55.3070 -55.3069
   -55.2975 -55.2975 -55.2975 -55.2974 -55.2909 -55.2909 -55.2909 -55.2909
   -55.2909 -55.2909 -55.2909 -55.2908 -55.2892 -55.2892 -55.2892 -55.2892
   -55.2891 -55.2891 -55.2891 -55.2891 -55.1893 -55.1893 -55.1893 -55.1893
   -55.1890 -55.1889 -55.1889 -55.1889 -55.1828 -55.1828 -55.1828 -55.1827
   -55.1827 -55.1827 -55.1827 -55.1827 -55.1823 -55.1823 -55.1823 -55.1822
   -55.1822 -55.1822 -55.1822 -55.1822 -16.0346 -16.0337 -16.0321 -16.0314
   -11.9263 -11.9248 -11.9247 -11.9095 -11.8964 -11.8776 -11.8716 -11.8716
   -11.8343 -11.8338 -11.8337 -11.8332 -11.8328 -11.8325 -11.8319 -11.8317
   -11.8262 -11.8260 -11.8253 -11.8251  -9.5464  -9.4484  -9.3426  -9.3072
    -9.2402  -9.2315  -9.2271  -9.2188  -9.1788  -9.0698  -9.0537  -9.0521
    -3.5751  -3.2488  -2.9092  -2.8993  -2.8936  -2.8857  -2.8848  -2.8694
    -2.8685  -2.8596  -2.8566  -2.8494  -2.8480  -2.8353  -2.7799  -2.4150
     1.1426   1.1518   1.2169   1.2502   1.3202   1.3768   2.1901   2.2143
     2.3020   2.3307   2.3687   2.3969   2.4649   2.5169   2.5385   2.7063
     2.7094   2.8447   2.8504   2.8740   2.8946   2.9364   2.9383   2.9451
     3.0101   3.0110   3.0737   3.1069   3.1135   3.1478   3.2141   3.2364
     3.4098   3.4742   3.7946   4.1157

          k = 0.0000 0.1917-0.3410 ( 54304 PWs)   bands (ev):

  -134.7656-134.7656-134.7655-134.7655 -76.4591 -76.4591 -76.4591 -76.4591
   -76.4569 -76.4569 -76.4569 -76.4569 -76.4526 -76.4526 -76.4526 -76.4526
   -55.3429 -55.3429 -55.3429 -55.3429 -55.3283 -55.3283 -55.3283 -55.3283
   -55.3282 -55.3282 -55.3282 -55.3282 -55.3070 -55.3070 -55.3069 -55.3069
   -55.2975 -55.2975 -55.2975 -55.2975 -55.2909 -55.2909 -55.2909 -55.2909
   -55.2909 -55.2909 -55.2908 -55.2908 -55.2892 -55.2892 -55.2892 -55.2892
   -55.2891 -55.2891 -55.2891 -55.2891 -55.1893 -55.1893 -55.1893 -55.1893
   -55.1889 -55.1889 -55.1889 -55.1889 -55.1828 -55.1828 -55.1828 -55.1828
   -55.1827 -55.1827 -55.1827 -55.1827 -55.1823 -55.1823 -55.1823 -55.1823
   -55.1822 -55.1822 -55.1822 -55.1822 -16.0342 -16.0342 -16.0318 -16.0318
   -11.9247 -11.9247 -11.9114 -11.9114 -11.8937 -11.8937 -11.8716 -11.8716
   -11.8340 -11.8340 -11.8335 -11.8335 -11.8327 -11.8327 -11.8318 -11.8318
   -11.8261 -11.8261 -11.8252 -11.8252  -9.5081  -9.5081  -9.3294  -9.3294
    -9.2287  -9.2287  -9.2049  -9.2049  -9.1341  -9.1341  -9.0529  -9.0529
    -3.4203  -3.4203  -2.9018  -2.9018  -2.8890  -2.8890  -2.8671  -2.8671
    -2.8579  -2.8579  -2.8560  -2.8560  -2.8537  -2.8537  -2.6214  -2.6214
     1.1786   1.1786   1.2177   1.2177   1.8061   1.8061   1.8868   1.8868
     2.2489   2.2489   2.3644   2.3644   2.4753   2.4753   2.5955   2.5955
     2.7587   2.7587   2.8300   2.8300   2.9226   2.9226   2.9296   2.9296
     3.0847   3.0847   3.0880   3.0880   3.1425   3.1425   3.1610   3.1610
     3.4015   3.4015   3.8858   3.8858

          k = 0.0000 0.3833 0.0000 ( 54320 PWs)   bands (ev):

  -134.7656-134.7656-134.7655-134.7655 -76.4591 -76.4591 -76.4591 -76.4591
   -76.4569 -76.4569 -76.4569 -76.4569 -76.4526 -76.4526 -76.4526 -76.4526
   -55.3429 -55.3429 -55.3428 -55.3428 -55.3283 -55.3283 -55.3282 -55.3282
   -55.3282 -55.3282 -55.3282 -55.3282 -55.3070 -55.3070 -55.3070 -55.3069
   -55.2975 -55.2975 -55.2975 -55.2975 -55.2910 -55.2909 -55.2909 -55.2909
   -55.2909 -55.2909 -55.2909 -55.2909 -55.2892 -55.2892 -55.2892 -55.2892
   -55.2892 -55.2891 -55.2891 -55.2891 -55.1893 -55.1893 -55.1893 -55.1893
   -55.1889 -55.1889 -55.1889 -55.1889 -55.1828 -55.1828 -55.1828 -55.1828
   -55.1827 -55.1827 -55.1827 -55.1827 -55.1823 -55.1823 -55.1822 -55.1822
   -55.1822 -55.1822 -55.1822 -55.1822 -16.0340 -16.0330 -16.0328 -16.0320
   -11.9273 -11.9210 -11.9088 -11.9087 -11.8885 -11.8884 -11.8841 -11.8768
   -11.8343 -11.8341 -11.8334 -11.8332 -11.8326 -11.8323 -11.8322 -11.8319
   -11.8260 -11.8257 -11.8257 -11.8253  -9.5106  -9.4362  -9.3661  -9.3192
    -9.2768  -9.2753  -9.1768  -9.1720  -9.1095  -9.1082  -9.1056  -9.0682
    -3.4313  -3.1560  -2.9856  -2.9139  -2.8828  -2.8806  -2.8750  -2.8685
    -2.8655  -2.8592  -2.8584  -2.8464  -2.8431  -2.8349  -2.8225  -2.6092
     1.0492   1.1074   1.4218   1.5447   1.6761   1.7012   1.8696   2.0074
     2.0929   2.1924   2.2742   2.2874   2.4755   2.5784   2.5878   2.6223
     2.7409   2.7789   2.8488   2.8708   2.8829   2.8842   2.9496   2.9505
     3.0112   3.0158   3.0769   3.0853   3.1212   3.1371   3.2044   3.2166
     3.4106   3.4481   3.7090   3.9399

          k = 0.0000 0.3833 0.1705 ( 54303 PWs)   bands (ev):

  -134.7656-134.7656-134.7655-134.7655 -76.4591 -76.4591 -76.4591 -76.4591
   -76.4569 -76.4569 -76.4569 -76.4569 -76.4526 -76.4526 -76.4526 -76.4526
   -55.3429 -55.3429 -55.3429 -55.3429 -55.3283 -55.3283 -55.3283 -55.3282
   -55.3282 -55.3282 -55.3282 -55.3282 -55.3070 -55.3070 -55.3070 -55.3069
   -55.2975 -55.2975 -55.2975 -55.2975 -55.2909 -55.2909 -55.2909 -55.2909
   -55.2909 -55.2909 -55.2909 -55.2908 -55.2892 -55.2892 -55.2892 -55.2892
   -55.2892 -55.2892 -55.2891 -55.2891 -55.1893 -55.1893 -55.1893 -55.1893
   -55.1889 -55.1889 -55.1889 -55.1889 -55.1828 -55.1828 -55.1828 -55.1827
   -55.1827 -55.1827 -55.1827 -55.1827 -55.1823 -55.1823 -55.1823 -55.1823
   -55.1822 -55.1822 -55.1822 -55.1822 -16.0338 -16.0330 -16.0329 -16.0321
   -11.9210 -11.9146 -11.9088 -11.9088 -11.8905 -11.8885 -11.8884 -11.8833
   -11.8342 -11.8340 -11.8335 -11.8334 -11.8325 -11.8323 -11.8322 -11.8320
   -11.8260 -11.8257 -11.8256 -11.8254  -9.4992  -9.4275  -9.4110  -9.3595
    -9.2276  -9.2226  -9.1761  -9.1726  -9.1244  -9.1085  -9.1061  -9.0887
    -3.3713  -3.0965  -3.0478  -2.9124  -2.8874  -2.8858  -2.8817  -2.8669
    -2.8647  -2.8580  -2.8562  -2.8488  -2.8474  -2.8348  -2.8346  -2.6927
     1.2429   1.3108   1.4386   1.5249   1.6693   1.7110   1.8926   1.9837
     2.1098   2.1176   2.2257   2.2654   2.5104   2.5534   2.6074   2.6098
     2.7150   2.7436   2.7892   2.8253   2.8463   2.8530   2.8939   2.9265
     3.0552   3.0623   3.0876   3.0967   3.1393   3.1436   3.1907   3.2148
     3.4066   3.4624   3.5446   3.7349

          k = 0.0000 0.3833-0.3410 ( 54292 PWs)   bands (ev):

  -134.7655-134.7655-134.7655-134.7655 -76.4591 -76.4591 -76.4591 -76.4591
   -76.4569 -76.4569 -76.4569 -76.4569 -76.4526 -76.4526 -76.4526 -76.4526
   -55.3429 -55.3429 -55.3429 -55.3429 -55.3283 -55.3283 -55.3283 -55.3283
   -55.3282 -55.3282 -55.3282 -55.3282 -55.3070 -55.3070 -55.3069 -55.3069
   -55.2975 -55.2975 -55.2975 -55.2975 -55.2909 -55.2909 -55.2909 -55.2909
   -55.2909 -55.2909 -55.2909 -55.2909 -55.2892 -55.2892 -55.2892 -55.2892
   -55.2891 -55.2891 -55.2891 -55.2891 -55.1893 -55.1893 -55.1893 -55.1893
   -55.1889 -55.1889 -55.1889 -55.1889 -55.1828 -55.1828 -55.1828 -55.1828
   -55.1827 -55.1827 -55.1827 -55.1827 -55.1823 -55.1823 -55.1823 -55.1823
   -55.1822 -55.1822 -55.1822 -55.1822 -16.0334 -16.0334 -16.0325 -16.0325
   -11.9088 -11.9088 -11.9059 -11.9059 -11.8991 -11.8991 -11.8885 -11.8885
   -11.8339 -11.8339 -11.8337 -11.8337 -11.8324 -11.8324 -11.8321 -11.8321
   -11.8258 -11.8258 -11.8255 -11.8255  -9.4650  -9.4650  -9.4016  -9.4016
    -9.1752  -9.1752  -9.1677  -9.1677  -9.1447  -9.1447  -9.1073  -9.1073
    -3.2156  -3.2156  -2.9563  -2.9563  -2.8876  -2.8876  -2.8869  -2.8869
    -2.8621  -2.8621  -2.8562  -2.8562  -2.8450  -2.8450  -2.8099  -2.8099
     1.4792   1.4792   1.5608   1.5608   1.7781   1.7781   1.8969   1.8969
     1.9693   1.9693   2.1698   2.1698   2.5732   2.5732   2.6078   2.6078
     2.6856   2.6856   2.7235   2.7235   2.8335   2.8335   2.8707   2.8707
     3.1108   3.1108   3.1259   3.1259   3.1518   3.1518   3.1625   3.1625
     3.4176   3.4176   3.5254   3.5254

          k = 0.2000 0.0000 0.0000 ( 54311 PWs)   bands (ev):

  -134.7657-134.7655-134.7655-134.7654 -76.4591 -76.4591 -76.4591 -76.4591
   -76.4569 -76.4569 -76.4569 -76.4569 -76.4526 -76.4526 -76.4526 -76.4526
   -55.3429 -55.3429 -55.3429 -55.3428 -55.3283 -55.3283 -55.3283 -55.3283
   -55.3283 -55.3282 -55.3282 -55.3282 -55.3070 -55.3070 -55.3070 -55.3069
   -55.2975 -55.2975 -55.2975 -55.2974 -55.2909 -55.2909 -55.2909 -55.2909
   -55.2909 -55.2909 -55.2908 -55.2908 -55.2892 -55.2892 -55.2892 -55.2892
   -55.2892 -55.2891 -55.2891 -55.2891 -55.1893 -55.1893 -55.1893 -55.1893
   -55.1890 -55.1890 -55.1889 -55.1889 -55.1828 -55.1828 -55.1828 -55.1827
   -55.1827 -55.1827 -55.1827 -55.1827 -55.1823 -55.1823 -55.1823 -55.1822
   -55.1822 -55.1822 -55.1822 -55.1822 -16.0348 -16.0336 -16.0321 -16.0313
   -11.9324 -11.9248 -11.9247 -11.9160 -11.8901 -11.8716 -11.8716 -11.8709
   -11.8344 -11.8340 -11.8335 -11.8331 -11.8328 -11.8325 -11.8320 -11.8316
   -11.8263 -11.8259 -11.8254 -11.8250  -9.5582  -9.4009  -9.3359  -9.2777
    -9.2740  -9.2636  -9.2497  -9.2416  -9.1628  -9.0560  -9.0535  -9.0458
    -3.6335  -3.1716  -2.9013  -2.8991  -2.8872  -2.8808  -2.8805  -2.8754
    -2.8699  -2.8663  -2.8595  -2.8578  -2.8438  -2.8419  -2.8234  -2.3128
     1.0075   1.1115   1.1666   1.2107   1.2237   1.3090   2.1707   2.2337
     2.2874   2.3703   2.4180   2.4378   2.4861   2.5740   2.6809   2.7279
     2.7782   2.8126   2.8326   2.8689   2.9097   2.9342   2.9363   2.9699
     2.9868   3.0146   3.0524   3.0852   3.1165   3.1480   3.2557   3.2567
     3.3706   3.5863   3.7653   4.3009

          k = 0.2000 0.0000 0.1705 ( 54337 PWs)   bands (ev):

  -134.7656-134.7656-134.7655-134.7655 -76.4591 -76.4591 -76.4591 -76.4591
   -76.4569 -76.4569 -76.4569 -76.4569 -76.4526 -76.4526 -76.4526 -76.4526
   -55.3429 -55.3429 -55.3429 -55.3428 -55.3283 -55.3283 -55.3283 -55.3283
   -55.3282 -55.3282 -55.3282 -55.3282 -55.3070 -55.3070 -55.3070 -55.3069
   -55.2975 -55.2975 -55.2975 -55.2975 -55.2909 -55.2909 -55.2909 -55.2909
   -55.2909 -55.2909 -55.2909 -55.2908 -55.2892 -55.2892 -55.2892 -55.2892
   -55.2892 -55.2891 -55.2891 -55.2891 -55.1893 -55.1893 -55.1893 -55.1893
   -55.1890 -55.1890 -55.1889 -55.1889 -55.1828 -55.1828 -55.1828 -55.1828
   -55.1828 -55.1827 -55.1827 -55.1827 -55.1823 -55.1823 -55.1823 -55.1823
   -55.1822 -55.1822 -55.1822 -55.1822 -16.0346 -16.0338 -16.0320 -16.0314
   -11.9263 -11.9248 -11.9248 -11.9095 -11.8963 -11.8776 -11.8716 -11.8716
   -11.8343 -11.8338 -11.8337 -11.8332 -11.8328 -11.8325 -11.8319 -11.8317
   -11.8263 -11.8260 -11.8253 -11.8251  -9.5454  -9.4473  -9.3318  -9.2987
    -9.2486  -9.2432  -9.2330  -9.2201  -9.1722  -9.0694  -9.0556  -9.0538
    -3.5737  -3.2472  -2.9018  -2.9012  -2.8846  -2.8799  -2.8755  -2.8714
    -2.8619  -2.8614  -2.8548  -2.8519  -2.8508  -2.8333  -2.7993  -2.4153
     1.1244   1.1547   1.1981   1.2882   1.3188   1.3769   2.1870   2.2086
     2.2352   2.3539   2.3944   2.3990   2.4812   2.5252   2.5483   2.6838
     2.7644   2.8241   2.8669   2.8737   2.9025   2.9208   2.9631   2.9956
     2.9998   3.0269   3.0319   3.0917   3.1121   3.1140   3.2233   3.2346
     3.3661   3.4528   3.7819   4.0860

          k = 0.2000 0.0000-0.3410 ( 54326 PWs)   bands (ev):

  -134.7656-134.7656-134.7655-134.7655 -76.4591 -76.4591 -76.4591 -76.4591
   -76.4569 -76.4569 -76.4569 -76.4569 -76.4526 -76.4526 -76.4526 -76.4526
   -55.3429 -55.3429 -55.3429 -55.3429 -55.3283 -55.3283 -55.3283 -55.3283
   -55.3282 -55.3282 -55.3282 -55.3282 -55.3070 -55.3070 -55.3069 -55.3069
   -55.2975 -55.2975 -55.2974 -55.2974 -55.2909 -55.2909 -55.2909 -55.2909
   -55.2909 -55.2909 -55.2908 -55.2908 -55.2892 -55.2892 -55.2892 -55.2892
   -55.2891 -55.2891 -55.2891 -55.2891 -55.1893 -55.1893 -55.1893 -55.1893
   -55.1890 -55.1890 -55.1889 -55.1889 -55.1828 -55.1828 -55.1827 -55.1827
   -55.1827 -55.1827 -55.1827 -55.1827 -55.1823 -55.1823 -55.1823 -55.1823
   -55.1822 -55.1822 -55.1822 -55.1822 -16.0342 -16.0342 -16.0317 -16.0317
   -11.9248 -11.9248 -11.9114 -11.9114 -11.8937 -11.8937 -11.8716 -11.8716
   -11.8340 -11.8340 -11.8335 -11.8335 -11.8327 -11.8327 -11.8318 -11.8318
   -11.8261 -11.8261 -11.8252 -11.8252  -9.5070  -9.5070  -9.3195  -9.3195
    -9.2458  -9.2458  -9.1984  -9.1984  -9.1337  -9.1337  -9.0547  -9.0547
    -3.4188  -3.4188  -2.9018  -2.9018  -2.8816  -2.8816  -2.8687  -2.8687
    -2.8629  -2.8629  -2.8573  -2.8573  -2.8426  -2.8426  -2.6266  -2.6266
     1.1563   1.1563   1.2423   1.2423   1.7972   1.7972   1.8884   1.8884
     2.2428   2.2428   2.3513   2.3513   2.4935   2.4935   2.5975   2.5975
     2.7945   2.7945   2.8394   2.8394   2.9168   2.9168   2.9803   2.9803
     3.0163   3.0163   3.0990   3.0990   3.1367   3.1367   3.1551   3.1551
     3.3708   3.3708   3.8602   3.8602

          k = 0.2000 0.1917 0.0000 ( 54275 PWs)   bands (ev):

  -134.7656-134.7655-134.7655-134.7655 -76.4591 -76.4591 -76.4591 -76.4591
   -76.4569 -76.4569 -76.4569 -76.4569 -76.4526 -76.4526 -76.4526 -76.4526
   -55.3429 -55.3429 -55.3429 -55.3428 -55.3283 -55.3283 -55.3283 -55.3282
   -55.3282 -55.3282 -55.3282 -55.3282 -55.3070 -55.3069 -55.3069 -55.3069
   -55.2975 -55.2975 -55.2975 -55.2974 -55.2909 -55.2909 -55.2909 -55.2909
   -55.2909 -55.2909 -55.2909 -55.2908 -55.2892 -55.2892 -55.2892 -55.2892
   -55.2891 -55.2891 -55.2891 -55.2891 -55.1893 -55.1893 -55.1893 -55.1893
   -55.1889 -55.1889 -55.1889 -55.1889 -55.1828 -55.1828 -55.1827 -55.1827
   -55.1827 -55.1827 -55.1827 -55.1827 -55.1823 -55.1823 -55.1822 -55.1822
   -55.1822 -55.1822 -55.1822 -55.1822 -16.0346 -16.0334 -16.0324 -16.0315
   -11.9336 -11.9212 -11.9185 -11.9171 -11.8868 -11.8819 -11.8760 -11.8676
   -11.8344 -11.8340 -11.8335 -11.8331 -11.8328 -11.8324 -11.8321 -11.8317
   -11.8262 -11.8258 -11.8255 -11.8251  -9.5413  -9.3870  -9.3536  -9.2788
    -9.2749  -9.2629  -9.2626  -9.2388  -9.1233  -9.0941  -9.0735  -9.0339
    -3.5691  -3.1070  -2.9774  -2.8999  -2.8953  -2.8804  -2.8782  -2.8722
    -2.8666  -2.8579  -2.8551  -2.8479  -2.8430  -2.8399  -2.8314  -2.4060
     1.0181   1.0484   1.1287   1.1705   1.5252   1.5942   2.0046   2.1688
     2.2125   2.2592   2.3070   2.4532   2.4535   2.6138   2.7005   2.7402
     2.8129   2.8175   2.8439   2.8617   2.8855   2.9153   2.9255   2.9322
     3.0089   3.0245   3.0627   3.0682   3.0989   3.1200   3.2219   3.2492
     3.3881   3.6277   3.6852   4.2335

          k = 0.2000 0.1917 0.1705 ( 54313 PWs)   bands (ev):

  -134.7656-134.7655-134.7655-134.7655 -76.4591 -76.4591 -76.4591 -76.4591
   -76.4569 -76.4569 -76.4569 -76.4569 -76.4526 -76.4526 -76.4526 -76.4526
   -55.3429 -55.3429 -55.3429 -55.3428 -55.3283 -55.3283 -55.3283 -55.3282
   -55.3282 -55.3282 -55.3282 -55.3282 -55.3070 -55.3070 -55.3070 -55.3069
   -55.2975 -55.2975 -55.2975 -55.2975 -55.2909 -55.2909 -55.2909 -55.2909
   -55.2909 -55.2909 -55.2909 -55.2909 -55.2892 -55.2892 -55.2892 -55.2892
   -55.2891 -55.2891 -55.2891 -55.2891 -55.1893 -55.1893 -55.1893 -55.1893
   -55.1890 -55.1890 -55.1889 -55.1889 -55.1828 -55.1828 -55.1828 -55.1827
   -55.1827 -55.1827 -55.1827 -55.1827 -55.1823 -55.1823 -55.1823 -55.1823
   -55.1822 -55.1822 -55.1822 -55.1822 -16.0344 -16.0335 -16.0322 -16.0316
   -11.9290 -11.9215 -11.9156 -11.9122 -11.8929 -11.8850 -11.8758 -11.8712
   -11.8342 -11.8339 -11.8336 -11.8333 -11.8327 -11.8324 -11.8320 -11.8318
   -11.8262 -11.8259 -11.8254 -11.8252  -9.5288  -9.4334  -9.3477  -9.3018
    -9.2638  -9.2615  -9.2212  -9.2080  -9.1347  -9.1011  -9.0729  -9.0492
    -3.5094  -3.1818  -2.9290  -2.8988  -2.8963  -2.8793  -2.8770  -2.8681
    -2.8669  -2.8603  -2.8566  -2.8504  -2.8475  -2.8357  -2.8239  -2.5035
     1.0622   1.1304   1.2268   1.3544   1.5614   1.5703   2.0302   2.1189
     2.1994   2.2304   2.2986   2.3938   2.4592   2.5670   2.6345   2.6599
     2.7473   2.7937   2.8167   2.8584   2.8821   2.9274   2.9731   2.9825
     3.0104   3.0341   3.0609   3.0837   3.1060   3.1126   3.2060   3.2275
     3.3759   3.4788   3.7033   4.0222

          k = 0.2000 0.1917-0.3410 ( 54300 PWs)   bands (ev):

  -134.7655-134.7655-134.7655-134.7655 -76.4591 -76.4591 -76.4591 -76.4591
   -76.4569 -76.4569 -76.4569 -76.4569 -76.4526 -76.4526 -76.4526 -76.4526
   -55.3429 -55.3429 -55.3429 -55.3429 -55.3283 -55.3283 -55.3283 -55.3283
   -55.3282 -55.3282 -55.3282 -55.3282 -55.3070 -55.3070 -55.3069 -55.3069
   -55.2975 -55.2975 -55.2974 -55.2974 -55.2909 -55.2909 -55.2909 -55.2909
   -55.2909 -55.2909 -55.2908 -55.2908 -55.2892 -55.2892 -55.2892 -55.2892
   -55.2891 -55.2891 -55.2891 -55.2891 -55.1893 -55.1893 -55.1893 -55.1893
   -55.1889 -55.1889 -55.1889 -55.1889 -55.1828 -55.1828 -55.1827 -55.1827
   -55.1827 -55.1827 -55.1827 -55.1827 -55.1823 -55.1823 -55.1823 -55.1823
   -55.1822 -55.1822 -55.1822 -55.1822 -16.0339 -16.0339 -16.0319 -16.0319
   -11.9230 -11.9230 -11.9066 -11.9066 -11.8974 -11.8974 -11.8748 -11.8748
   -11.8340 -11.8340 -11.8336 -11.8336 -11.8326 -11.8326 -11.8319 -11.8319
   -11.8260 -11.8260 -11.8253 -11.8253  -9.4916  -9.4916  -9.3301  -9.3301
    -9.2625  -9.2625  -9.1661  -9.1661  -9.1430  -9.1430  -9.0684  -9.0684
    -3.3540  -3.3540  -2.8989  -2.8989  -2.8817  -2.8817  -2.8664  -2.8664
    -2.8635  -2.8635  -2.8559  -2.8559  -2.8488  -2.8488  -2.7006  -2.7006
     1.0969   1.0969   1.4952   1.4952   1.8343   1.8343   1.8473   1.8473
     2.1178   2.1178   2.2789   2.2789   2.5024   2.5024   2.6380   2.6380
     2.6973   2.6973   2.8345   2.8345   2.9086   2.9086   2.9630   2.9630
     3.0479   3.0479   3.1136   3.1136   3.1366   3.1366   3.1585   3.1585
     3.3753   3.3753   3.7891   3.7891

          k = 0.2000 0.3833 0.0000 ( 54253 PWs)   bands (ev):

  -134.7655-134.7655-134.7655-134.7654 -76.4591 -76.4591 -76.4591 -76.4591
   -76.4569 -76.4569 -76.4569 -76.4569 -76.4526 -76.4526 -76.4526 -76.4526
   -55.3429 -55.3429 -55.3428 -55.3428 -55.3283 -55.3283 -55.3283 -55.3282
   -55.3282 -55.3282 -55.3282 -55.3282 -55.3070 -55.3070 -55.3069 -55.3069
   -55.2975 -55.2975 -55.2974 -55.2974 -55.2909 -55.2909 -55.2909 -55.2909
   -55.2909 -55.2909 -55.2909 -55.2908 -55.2892 -55.2892 -55.2892 -55.2892
   -55.2891 -55.2891 -55.2891 -55.2891 -55.1893 -55.1893 -55.1893 -55.1893
   -55.1889 -55.1889 -55.1889 -55.1889 -55.1828 -55.1828 -55.1828 -55.1827
   -55.1827 -55.1827 -55.1827 -55.1827 -55.1823 -55.1823 -55.1822 -55.1822
   -55.1822 -55.1822 -55.1822 -55.1822 -16.0339 -16.0331 -16.0327 -16.0320
   -11.9308 -11.9245 -11.9112 -11.9028 -11.8967 -11.8876 -11.8790 -11.8711
   -11.8343 -11.8341 -11.8334 -11.8332 -11.8325 -11.8323 -11.8322 -11.8319
   -11.8260 -11.8257 -11.8256 -11.8253  -9.4931  -9.4225  -9.3497  -9.3017
    -9.2777  -9.2763  -9.2238  -9.1895  -9.1574  -9.1257  -9.0734  -9.0424
    -3.3964  -3.1721  -2.9537  -2.9019  -2.8814  -2.8738  -2.8714  -2.8662
    -2.8626  -2.8584  -2.8569  -2.8465  -2.8448  -2.8375  -2.8114  -2.6272
     1.0489   1.0935   1.2098   1.3217   1.5729   1.6981   1.9568   2.0333
     2.2029   2.2258   2.2574   2.3988   2.5067   2.5889   2.6693   2.6871
     2.7819   2.8144   2.8555   2.8667   2.8765   2.8889   2.9332   2.9524
     2.9911   3.0053   3.0389   3.0718   3.0862   3.1521   3.1612   3.2066
     3.3952   3.4787   3.7546   3.9909

          k = 0.2000 0.3833 0.1705 ( 54297 PWs)   bands (ev):

  -134.7656-134.7655-134.7655-134.7655 -76.4591 -76.4591 -76.4591 -76.4591
   -76.4569 -76.4569 -76.4569 -76.4569 -76.4526 -76.4526 -76.4526 -76.4526
   -55.3429 -55.3429 -55.3429 -55.3428 -55.3283 -55.3283 -55.3283 -55.3282
   -55.3282 -55.3282 -55.3282 -55.3282 -55.3070 -55.3070 -55.3070 -55.3069
   -55.2975 -55.2975 -55.2975 -55.2975 -55.2909 -55.2909 -55.2909 -55.2909
   -55.2909 -55.2909 -55.2909 -55.2909 -55.2892 -55.2892 -55.2892 -55.2892
   -55.2892 -55.2892 -55.2891 -55.2891 -55.1893 -55.1893 -55.1893 -55.1893
   -55.1889 -55.1889 -55.1889 -55.1889 -55.1828 -55.1828 -55.1828 -55.1828
   -55.1827 -55.1827 -55.1827 -55.1827 -55.1823 -55.1823 -55.1823 -55.1823
   -55.1822 -55.1822 -55.1822 -55.1822 -16.0337 -16.0330 -16.0328 -16.0322
   -11.9258 -11.9189 -11.9121 -11.9015 -11.8986 -11.8869 -11.8845 -11.8759
   -11.8341 -11.8340 -11.8335 -11.8334 -11.8325 -11.8322 -11.8322 -11.8320
   -11.8259 -11.8257 -11.8256 -11.8254  -9.4819  -9.4136  -9.3955  -9.3445
    -9.2428  -9.2303  -9.2219  -9.1736  -9.1599  -9.1209  -9.0884  -9.0592
    -3.3362  -3.1121  -3.0117  -2.9012  -2.8863  -2.8781  -2.8760  -2.8652
    -2.8631  -2.8612  -2.8564  -2.8486  -2.8441  -2.8371  -2.8307  -2.7091
     1.2006   1.2705   1.2827   1.3266   1.6012   1.6723   1.9773   1.9875
     2.2043   2.2183   2.2500   2.2930   2.5066   2.5534   2.6285   2.6690
     2.7204   2.7717   2.8054   2.8356   2.8554   2.8935   2.9309   2.9539
     3.0264   3.0470   3.0588   3.0800   3.1156   3.1628   3.1702   3.1978
     3.3893   3.4895   3.5718   3.7872

          k = 0.2000 0.3833-0.3410 ( 54300 PWs)   bands (ev):

  -134.7655-134.7655-134.7655-134.7655 -76.4591 -76.4591 -76.4591 -76.4591
   -76.4569 -76.4569 -76.4569 -76.4569 -76.4526 -76.4526 -76.4526 -76.4526
   -55.3429 -55.3429 -55.3429 -55.3429 -55.3283 -55.3283 -55.3283 -55.3283
   -55.3282 -55.3282 -55.3282 -55.3282 -55.3070 -55.3070 -55.3070 -55.3070
   -55.2975 -55.2975 -55.2975 -55.2975 -55.2909 -55.2909 -55.2909 -55.2909
   -55.2909 -55.2909 -55.2909 -55.2909 -55.2892 -55.2892 -55.2892 -55.2892
   -55.2891 -55.2891 -55.2891 -55.2891 -55.1893 -55.1893 -55.1893 -55.1893
   -55.1889 -55.1889 -55.1889 -55.1889 -55.1828 -55.1828 -55.1827 -55.1827
   -55.1827 -55.1827 -55.1827 -55.1827 -55.1823 -55.1823 -55.1823 -55.1823
   -55.1822 -55.1822 -55.1822 -55.1822 -16.0333 -16.0333 -16.0325 -16.0325
   -11.9166 -11.9166 -11.9066 -11.9066 -11.8955 -11.8955 -11.8836 -11.8836
   -11.8339 -11.8339 -11.8337 -11.8337 -11.8324 -11.8324 -11.8321 -11.8321
   -11.8258 -11.8258 -11.8255 -11.8255  -9.4485  -9.4485  -9.3871  -9.3871
    -9.2281  -9.2281  -9.1767  -9.1767  -9.1282  -9.1282  -9.0973  -9.0973
    -3.1797  -3.1797  -2.9653  -2.9653  -2.8871  -2.8871  -2.8783  -2.8783
    -2.8600  -2.8600  -2.8559  -2.8559  -2.8440  -2.8440  -2.8147  -2.8147
     1.2543   1.2543   1.5867   1.5867   1.7358   1.7358   1.8639   1.8639
     2.0552   2.0552   2.2388   2.2388   2.5448   2.5448   2.6014   2.6014
     2.6982   2.6982   2.7913   2.7913   2.8573   2.8573   2.9480   2.9480
     3.0698   3.0698   3.1115   3.1115   3.1472   3.1472   3.1711   3.1711
     3.4054   3.4054   3.5614   3.5614

          k = 0.4000 0.0000 0.0000 ( 54298 PWs)   bands (ev):

  -134.7656-134.7655-134.7655-134.7654 -76.4591 -76.4591 -76.4591 -76.4591
   -76.4569 -76.4569 -76.4569 -76.4569 -76.4526 -76.4526 -76.4526 -76.4526
   -55.3429 -55.3429 -55.3429 -55.3428 -55.3283 -55.3283 -55.3283 -55.3282
   -55.3282 -55.3282 -55.3282 -55.3282 -55.3070 -55.3070 -55.3070 -55.3069
   -55.2975 -55.2975 -55.2975 -55.2975 -55.2909 -55.2909 -55.2909 -55.2909
   -55.2909 -55.2909 -55.2909 -55.2909 -55.2892 -55.2892 -55.2892 -55.2892
   -55.2892 -55.2891 -55.2891 -55.2891 -55.1893 -55.1893 -55.1893 -55.1893
   -55.1890 -55.1889 -55.1889 -55.1888 -55.1828 -55.1828 -55.1828 -55.1828
   -55.1827 -55.1827 -55.1827 -55.1827 -55.1823 -55.1822 -55.1822 -55.1822
   -55.1822 -55.1822 -55.1822 -55.1822 -16.0341 -16.0334 -16.0323 -16.0318
   -11.9273 -11.9210 -11.9089 -11.9088 -11.8886 -11.8885 -11.8840 -11.8767
   -11.8343 -11.8341 -11.8334 -11.8332 -11.8326 -11.8323 -11.8322 -11.8319
   -11.8260 -11.8257 -11.8257 -11.8253  -9.5067  -9.4286  -9.3605  -9.3081
    -9.2776  -9.2761  -9.1905  -9.1836  -9.1183  -9.1118  -9.1023  -9.0663
    -3.4256  -3.1411  -2.9780  -2.8912  -2.8900  -2.8819  -2.8805  -2.8695
    -2.8651  -2.8595  -2.8516  -2.8442  -2.8400  -2.8369  -2.8313  -2.6088
     1.0489   1.1073   1.3983   1.5252   1.6761   1.7585   1.8261   2.0017
     2.1159   2.2432   2.2615   2.2746   2.4668   2.5815   2.5891   2.6592
     2.7663   2.8182   2.8239   2.8835   2.8986   2.9129   2.9518   2.9698
     3.0064   3.0101   3.0300   3.0857   3.0979   3.1384   3.1988   3.2180
     3.2940   3.3822   3.6699   3.8920

          k = 0.4000 0.0000 0.1705 ( 54274 PWs)   bands (ev):

  -134.7656-134.7655-134.7655-134.7655 -76.4591 -76.4591 -76.4591 -76.4591
   -76.4569 -76.4569 -76.4569 -76.4569 -76.4526 -76.4526 -76.4526 -76.4526
   -55.3429 -55.3429 -55.3428 -55.3428 -55.3283 -55.3283 -55.3283 -55.3282
   -55.3282 -55.3282 -55.3282 -55.3282 -55.3070 -55.3070 -55.3070 -55.3069
   -55.2975 -55.2975 -55.2975 -55.2974 -55.2909 -55.2909 -55.2909 -55.2909
   -55.2909 -55.2909 -55.2909 -55.2908 -55.2892 -55.2892 -55.2892 -55.2891
   -55.2891 -55.2891 -55.2891 -55.2891 -55.1893 -55.1893 -55.1893 -55.1893
   -55.1890 -55.1890 -55.1889 -55.1888 -55.1828 -55.1828 -55.1828 -55.1828
   -55.1827 -55.1827 -55.1827 -55.1827 -55.1823 -55.1823 -55.1822 -55.1822
   -55.1822 -55.1822 -55.1822 -55.1822 -16.0339 -16.0334 -16.0324 -16.0319
   -11.9210 -11.9146 -11.9089 -11.9088 -11.8905 -11.8886 -11.8885 -11.8833
   -11.8341 -11.8340 -11.8335 -11.8334 -11.8325 -11.8323 -11.8322 -11.8320
   -11.8260 -11.8257 -11.8256 -11.8254  -9.4953  -9.4203  -9.4066  -9.3520
    -9.2246  -9.2221  -9.1897  -9.1843  -9.1236  -9.1123  -9.1121  -9.0868
    -3.3654  -3.0806  -3.0396  -2.8932  -2.8908  -2.8884  -2.8800  -2.8738
    -2.8601  -2.8595  -2.8504  -2.8495  -2.8431  -2.8417  -2.8354  -2.6979
     1.2444   1.3105   1.4151   1.5044   1.7127   1.7179   1.8475   1.9677
     2.1337   2.1703   2.1930   2.2448   2.5024   2.5920   2.6089   2.6235
     2.7389   2.7617   2.8001   2.8366   2.8820   2.8903   2.9581   2.9631
     3.0393   3.0400   3.0702   3.0853   3.1021   3.1381   3.1818   3.2104
     3.2977   3.3859   3.4808   3.6616

          k = 0.4000 0.0000-0.3410 ( 54288 PWs)   bands (ev):

  -134.7655-134.7655-134.7655-134.7655 -76.4591 -76.4591 -76.4591 -76.4591
   -76.4569 -76.4569 -76.4569 -76.4569 -76.4526 -76.4526 -76.4526 -76.4526
   -55.3429 -55.3429 -55.3428 -55.3428 -55.3283 -55.3283 -55.3283 -55.3283
   -55.3282 -55.3282 -55.3282 -55.3282 -55.3070 -55.3070 -55.3069 -55.3069
   -55.2975 -55.2975 -55.2974 -55.2974 -55.2909 -55.2909 -55.2909 -55.2909
   -55.2909 -55.2909 -55.2909 -55.2909 -55.2892 -55.2892 -55.2892 -55.2892
   -55.2891 -55.2891 -55.2891 -55.2891 -55.1893 -55.1893 -55.1893 -55.1893
   -55.1890 -55.1890 -55.1888 -55.1888 -55.1828 -55.1828 -55.1827 -55.1827
   -55.1827 -55.1827 -55.1827 -55.1827 -55.1823 -55.1823 -55.1823 -55.1823
   -55.1822 -55.1822 -55.1822 -55.1822 -16.0336 -16.0336 -16.0322 -16.0322
   -11.9089 -11.9089 -11.9058 -11.9058 -11.8990 -11.8990 -11.8885 -11.8885
   -11.8339 -11.8339 -11.8337 -11.8337 -11.8324 -11.8324 -11.8321 -11.8321
   -11.8258 -11.8258 -11.8255 -11.8255  -9.4613  -9.4613  -9.3943  -9.3943
    -9.1879  -9.1879  -9.1654  -9.1654  -9.1423  -9.1423  -9.1135  -9.1135
    -3.2091  -3.2091  -2.9335  -2.9335  -2.8933  -2.8933  -2.8802  -2.8802
    -2.8568  -2.8568  -2.8517  -2.8517  -2.8409  -2.8409  -2.8354  -2.8354
     1.4578   1.4578   1.5843   1.5843   1.7725   1.7725   1.8772   1.8772
     1.9529   1.9529   2.1781   2.1781   2.5968   2.5968   2.6240   2.6240
     2.6905   2.6905   2.7725   2.7725   2.8831   2.8831   2.9195   2.9195
     3.0746   3.0746   3.1104   3.1104   3.1259   3.1259   3.1712   3.1712
     3.3240   3.3240   3.4305   3.4305

          k = 0.4000 0.1917 0.0000 ( 54258 PWs)   bands (ev):

  -134.7655-134.7655-134.7655-134.7654 -76.4591 -76.4591 -76.4591 -76.4591
   -76.4569 -76.4569 -76.4569 -76.4569 -76.4526 -76.4526 -76.4526 -76.4526
   -55.3429 -55.3429 -55.3428 -55.3428 -55.3283 -55.3283 -55.3283 -55.3283
   -55.3282 -55.3282 -55.3282 -55.3282 -55.3070 -55.3070 -55.3070 -55.3069
   -55.2975 -55.2975 -55.2974 -55.2974 -55.2909 -55.2909 -55.2909 -55.2909
   -55.2909 -55.2909 -55.2908 -55.2908 -55.2892 -55.2892 -55.2892 -55.2892
   -55.2891 -55.2891 -55.2891 -55.2891 -55.1893 -55.1893 -55.1893 -55.1893
   -55.1890 -55.1889 -55.1889 -55.1888 -55.1828 -55.1828 -55.1828 -55.1828
   -55.1827 -55.1827 -55.1827 -55.1827 -55.1823 -55.1823 -55.1823 -55.1822
   -55.1822 -55.1822 -55.1822 -55.1822 -16.0339 -16.0333 -16.0324 -16.0319
   -11.9308 -11.9245 -11.9112 -11.9028 -11.8968 -11.8876 -11.8790 -11.8711
   -11.8343 -11.8341 -11.8334 -11.8332 -11.8325 -11.8323 -11.8322 -11.8319
   -11.8260 -11.8257 -11.8256 -11.8253  -9.4903  -9.4169  -9.3457  -9.2927
    -9.2782  -9.2768  -9.2308  -9.1989  -9.1610  -9.1301  -9.0728  -9.0426
    -3.3925  -3.1637  -2.9486  -2.8868  -2.8850  -2.8785  -2.8735  -2.8666
    -2.8639  -2.8580  -2.8499  -2.8474  -2.8407  -2.8397  -2.8169  -2.6272
     1.0484   1.0921   1.2016   1.3272   1.5618   1.7035   1.9435   2.0598
     2.1893   2.2149   2.2553   2.4443   2.5169   2.5920   2.6676   2.7125
     2.7693   2.8213   2.8433   2.8826   2.8977   2.9334   2.9438   2.9614
     2.9647   2.9746   3.0134   3.0449   3.0826   3.1310   3.1772   3.2059
     3.3417   3.4421   3.7321   3.9651

          k = 0.4000 0.1917 0.1705 ( 54260 PWs)   bands (ev):

  -134.7655-134.7655-134.7655-134.7655 -76.4591 -76.4591 -76.4591 -76.4591
   -76.4569 -76.4569 -76.4569 -76.4569 -76.4526 -76.4526 -76.4526 -76.4526
   -55.3429 -55.3429 -55.3428 -55.3428 -55.3283 -55.3283 -55.3283 -55.3282
   -55.3282 -55.3282 -55.3282 -55.3282 -55.3070 -55.3070 -55.3069 -55.3069
   -55.2975 -55.2975 -55.2975 -55.2974 -55.2909 -55.2909 -55.2909 -55.2909
   -55.2909 -55.2909 -55.2908 -55.2908 -55.2892 -55.2892 -55.2892 -55.2892
   -55.2891 -55.2891 -55.2891 -55.2891 -55.1893 -55.1893 -55.1893 -55.1893
   -55.1890 -55.1889 -55.1889 -55.1888 -55.1828 -55.1828 -55.1828 -55.1827
   -55.1827 -55.1827 -55.1827 -55.1827 -55.1823 -55.1823 -55.1822 -55.1822
   -55.1822 -55.1822 -55.1822 -55.1822 -16.0338 -16.0333 -16.0325 -16.0321
   -11.9258 -11.9188 -11.9122 -11.9015 -11.8986 -11.8869 -11.8845 -11.8759
   -11.8341 -11.8340 -11.8335 -11.8334 -11.8325 -11.8322 -11.8322 -11.8320
   -11.8259 -11.8257 -11.8257 -11.8254  -9.4792  -9.4083  -9.3923  -9.3388
    -9.2438  -9.2345  -9.2239  -9.1790  -9.1633  -9.1251  -9.0881  -9.0598
    -3.3322  -3.1032  -3.0063  -2.8891  -2.8850  -2.8842  -2.8753  -2.8706
    -2.8605  -2.8550  -2.8520  -2.8508  -2.8430  -2.8395  -2.8343  -2.7129
     1.1999   1.2641   1.2766   1.3338   1.5904   1.6765   1.9625   2.0049
     2.1867   2.1958   2.2511   2.3285   2.5216   2.5639   2.6446   2.6713
     2.7255   2.7700   2.8249   2.8281   2.9238   2.9273   2.9350   2.9770
     3.0087   3.0244   3.0509   3.0551   3.0853   3.1375   3.1745   3.1974
     3.3344   3.4490   3.5366   3.7508

          k = 0.4000 0.1917-0.3410 ( 54252 PWs)   bands (ev):

  -134.7655-134.7655-134.7655-134.7655 -76.4591 -76.4591 -76.4591 -76.4591
   -76.4569 -76.4569 -76.4569 -76.4569 -76.4526 -76.4526 -76.4526 -76.4526
   -55.3429 -55.3429 -55.3428 -55.3428 -55.3283 -55.3283 -55.3282 -55.3282
   -55.3282 -55.3282 -55.3282 -55.3282 -55.3069 -55.3069 -55.3069 -55.3069
   -55.2975 -55.2975 -55.2974 -55.2974 -55.2909 -55.2909 -55.2909 -55.2909
   -55.2909 -55.2909 -55.2908 -55.2908 -55.2892 -55.2892 -55.2891 -55.2891
   -55.2891 -55.2891 -55.2891 -55.2891 -55.1893 -55.1893 -55.1893 -55.1893
   -55.1889 -55.1889 -55.1889 -55.1889 -55.1827 -55.1827 -55.1827 -55.1827
   -55.1827 -55.1827 -55.1827 -55.1827 -55.1823 -55.1823 -55.1822 -55.1822
   -55.1822 -55.1822 -55.1822 -55.1822 -16.0335 -16.0335 -16.0323 -16.0323
   -11.9166 -11.9166 -11.9066 -11.9066 -11.8955 -11.8955 -11.8836 -11.8836
   -11.8339 -11.8339 -11.8337 -11.8337 -11.8324 -11.8324 -11.8321 -11.8321
   -11.8258 -11.8258 -11.8255 -11.8255  -9.4458  -9.4458  -9.3815  -9.3815
    -9.2336  -9.2336  -9.1777  -9.1777  -9.1295  -9.1295  -9.0995  -9.0995
    -3.1753  -3.1753  -2.9530  -2.9530  -2.8879  -2.8879  -2.8754  -2.8754
    -2.8552  -2.8552  -2.8518  -2.8518  -2.8500  -2.8500  -2.8247  -2.8247
     1.2525   1.2525   1.5873   1.5873   1.7254   1.7254   1.8622   1.8622
     2.0483   2.0483   2.2390   2.2390   2.5623   2.5623   2.6137   2.6137
     2.7126   2.7126   2.8107   2.8107   2.9071   2.9071   2.9623   2.9623
     3.0413   3.0413   3.0885   3.0885   3.1343   3.1343   3.1689   3.1689
     3.3496   3.3496   3.5171   3.5171

          k = 0.4000 0.3833 0.0000 ( 54302 PWs)   bands (ev):

  -134.7656-134.7656-134.7655-134.7654 -76.4591 -76.4591 -76.4591 -76.4591
   -76.4569 -76.4569 -76.4569 -76.4569 -76.4526 -76.4526 -76.4526 -76.4526
   -55.3429 -55.3429 -55.3428 -55.3428 -55.3283 -55.3283 -55.3283 -55.3283
   -55.3283 -55.3282 -55.3282 -55.3282 -55.3070 -55.3070 -55.3070 -55.3069
   -55.2975 -55.2975 -55.2974 -55.2974 -55.2909 -55.2909 -55.2909 -55.2909
   -55.2909 -55.2909 -55.2909 -55.2908 -55.2892 -55.2892 -55.2892 -55.2892
   -55.2892 -55.2892 -55.2891 -55.2891 -55.1893 -55.1893 -55.1893 -55.1893
   -55.1889 -55.1889 -55.1889 -55.1889 -55.1828 -55.1828 -55.1828 -55.1828
   -55.1827 -55.1827 -55.1827 -55.1827 -55.1823 -55.1823 -55.1823 -55.1822
   -55.1822 -55.1822 -55.1822 -55.1822 -16.0336 -16.0333 -16.0324 -16.0322
   -11.9334 -11.9306 -11.9122 -11.9070 -11.8937 -11.8882 -11.8711 -11.8678
   -11.8342 -11.8342 -11.8334 -11.8333 -11.8324 -11.8323 -11.8320 -11.8319
   -11.8259 -11.8258 -11.8255 -11.8254  -9.4475  -9.4085  -9.3069  -9.2827
    -9.2787  -9.2700  -9.2623  -9.2274  -9.2194  -9.1764  -9.0390  -9.0282
    -3.3124  -3.2257  -2.8988  -2.8808  -2.8779  -2.8705  -2.8665  -2.8628
    -2.8587  -2.8551  -2.8490  -2.8483  -2.8455  -2.8436  -2.7666  -2.6860
     1.0506   1.0622   1.1032   1.2427   1.2443   1.3813   2.1554   2.1680
     2.2033   2.2811   2.3899   2.5638   2.5674   2.6001   2.7234   2.7663
     2.7956   2.8086   2.8502   2.8686   2.8840   2.8909   2.9378   2.9509
     2.9680   2.9754   2.9946   2.9972   3.0195   3.0600   3.2070   3.2401
     3.4236   3.4998   3.8950   4.0238

          k = 0.4000 0.3833 0.1705 ( 54280 PWs)   bands (ev):

  -134.7655-134.7655-134.7655-134.7655 -76.4591 -76.4591 -76.4591 -76.4591
   -76.4569 -76.4569 -76.4569 -76.4569 -76.4526 -76.4526 -76.4526 -76.4526
   -55.3429 -55.3429 -55.3429 -55.3428 -55.3283 -55.3283 -55.3283 -55.3283
   -55.3282 -55.3282 -55.3282 -55.3282 -55.3070 -55.3070 -55.3069 -55.3069
   -55.2975 -55.2975 -55.2975 -55.2974 -55.2909 -55.2909 -55.2909 -55.2909
   -55.2909 -55.2909 -55.2909 -55.2908 -55.2892 -55.2892 -55.2892 -55.2892
   -55.2891 -55.2891 -55.2891 -55.2891 -55.1893 -55.1893 -55.1893 -55.1893
   -55.1890 -55.1889 -55.1889 -55.1889 -55.1828 -55.1828 -55.1828 -55.1827
   -55.1827 -55.1827 -55.1827 -55.1827 -55.1823 -55.1823 -55.1823 -55.1823
   -55.1822 -55.1822 -55.1822 -55.1822 -16.0334 -16.0332 -16.0326 -16.0323
   -11.9288 -11.9257 -11.9138 -11.9089 -11.8919 -11.8867 -11.8760 -11.8724
   -11.8341 -11.8341 -11.8335 -11.8335 -11.8324 -11.8323 -11.8321 -11.8320
   -11.8258 -11.8257 -11.8256 -11.8255  -9.4369  -9.3984  -9.3553  -9.3210
    -9.2695  -9.2684  -9.2458  -9.2293  -9.1688  -9.1507  -9.0562  -9.0460
    -3.2517  -3.1650  -2.9330  -2.8863  -2.8774  -2.8751  -2.8739  -2.8681
    -2.8614  -2.8605  -2.8511  -2.8457  -2.8414  -2.8406  -2.8127  -2.7599
     1.1196   1.1845   1.2454   1.2496   1.3325   1.3769   2.1672   2.1931
     2.2071   2.2535   2.2900   2.3576   2.5238   2.5681   2.6783   2.6946
     2.7567   2.8222   2.8581   2.8779   2.9012   2.9150   2.9440   2.9628
     2.9678   2.9906   3.0128   3.0218   3.0547   3.0950   3.2034   3.2294
     3.4235   3.5141   3.6998   3.8290

          k = 0.4000 0.3833-0.3410 ( 54306 PWs)   bands (ev):

  -134.7656-134.7656-134.7655-134.7655 -76.4591 -76.4591 -76.4591 -76.4591
   -76.4569 -76.4569 -76.4569 -76.4569 -76.4526 -76.4526 -76.4526 -76.4526
   -55.3429 -55.3429 -55.3429 -55.3429 -55.3283 -55.3283 -55.3283 -55.3283
   -55.3282 -55.3282 -55.3282 -55.3282 -55.3070 -55.3070 -55.3070 -55.3070
   -55.2975 -55.2975 -55.2975 -55.2975 -55.2909 -55.2909 -55.2909 -55.2909
   -55.2909 -55.2909 -55.2909 -55.2909 -55.2892 -55.2892 -55.2892 -55.2892
   -55.2892 -55.2892 -55.2891 -55.2891 -55.1893 -55.1893 -55.1893 -55.1893
   -55.1889 -55.1889 -55.1889 -55.1889 -55.1828 -55.1828 -55.1828 -55.1828
   -55.1827 -55.1827 -55.1827 -55.1827 -55.1823 -55.1823 -55.1823 -55.1823
   -55.1822 -55.1822 -55.1822 -55.1822 -16.0331 -16.0331 -16.0327 -16.0327
   -11.9197 -11.9197 -11.9157 -11.9157 -11.8857 -11.8857 -11.8812 -11.8812
   -11.8338 -11.8338 -11.8338 -11.8338 -11.8322 -11.8322 -11.8321 -11.8321
   -11.8257 -11.8257 -11.8256 -11.8256  -9.4054  -9.4054  -9.3684  -9.3684
    -9.2687  -9.2687  -9.2331  -9.2331  -9.1035  -9.1035  -9.0936  -9.0936
    -3.0940  -3.0940  -3.0094  -3.0094  -2.8775  -2.8775  -2.8707  -2.8707
    -2.8561  -2.8561  -2.8545  -2.8545  -2.8398  -2.8398  -2.8266  -2.8266
     1.1603   1.1603   1.2954   1.2954   1.7816   1.7816   1.8323   1.8323
     2.2123   2.2123   2.2532   2.2532   2.5408   2.5408   2.6011   2.6011
     2.8074   2.8074   2.8762   2.8762   2.8960   2.8960   2.9517   2.9517
     2.9974   2.9974   3.0328   3.0328   3.1494   3.1494   3.1810   3.1810
     3.4795   3.4795   3.6004   3.6004

     highest occupied level (ev):     4.5800

!    total energy              =   -5116.27802587 Ry
     estimated scf accuracy    <          9.0E-09 Ry

     The total energy is the sum of the following terms:
     one-electron contribution =   -3888.38704744 Ry
     hartree contribution      =    1893.26025763 Ry
     xc contribution           =    -861.54267752 Ry
     ewald contribution        =   -2259.60855854 Ry

     convergence has been achieved in  11 iterations

     Forces acting on atoms (cartesian axes, Ry/au):

     atom    1 type  1   force =    -0.00068235    0.00023879    0.00000000
     atom    2 type  1   force =    -0.00068235   -0.00023879   -0.00000000
     atom    3 type  1   force =     0.00068235    0.00023879    0.00000000
     atom    4 type  1   force =     0.00068235   -0.00023879    0.00000000
     atom    5 type  2   force =     0.00000000    0.00000000    0.00000000
     atom    6 type  2   force =     0.00000000    0.00000000    0.00000000
     atom    7 type  2   force =     0.00000000    0.00000000   -0.00000000
     atom    8 type  2   force =     0.00000000    0.00000000   -0.00000000
     atom    9 type  3   force =     0.00132853   -0.00054683    0.00000000
     atom   10 type  3   force =     0.00132853    0.00054683    0.00000000
     atom   11 type  3   force =     0.00076003   -0.00070203    0.00089017
     atom   12 type  3   force =    -0.00076003    0.00070203   -0.00089017
     atom   13 type  3   force =     0.00076003    0.00070203   -0.00089017
     atom   14 type  3   force =    -0.00076003   -0.00070203    0.00089017
     atom   15 type  3   force =     0.00076003    0.00070203    0.00089017
     atom   16 type  3   force =    -0.00076003   -0.00070203   -0.00089017
     atom   17 type  3   force =    -0.00076003    0.00070203    0.00089017
     atom   18 type  3   force =     0.00076003   -0.00070203   -0.00089017
     atom   19 type  3   force =    -0.00132853   -0.00054683    0.00000000
     atom   20 type  3   force =    -0.00132853    0.00054683    0.00000000

     Total force =     0.005025     Total SCF correction =     0.000073


     Computing stress (Cartesian axis) and pressure

          total   stress  (Ry/bohr**3)                   (kbar)     P=        0.20
   0.00000330   0.00000000   0.00000000            0.49        0.00        0.00
   0.00000000   0.00000350   0.00000000            0.00        0.51        0.00
   0.00000000   0.00000000  -0.00000277            0.00        0.00       -0.41


     Writing output data file ./cspbbr3_ecut70.save/

     init_run     :    264.74s CPU    530.31s WALL (       1 calls)
     electrons    :   9743.48s CPU  16872.37s WALL (       1 calls)
     forces       :    137.52s CPU    215.83s WALL (       1 calls)
     stress       :    982.84s CPU   1639.80s WALL (       1 calls)

     Called by init_run:
     wfcinit      :    245.12s CPU    500.45s WALL (       1 calls)
     potinit      :      6.67s CPU     10.79s WALL (       1 calls)
     hinit0       :     12.36s CPU     18.23s WALL (       1 calls)

     Called by electrons:
     c_bands      :   8789.06s CPU  15199.49s WALL (      12 calls)
     sum_band     :    947.81s CPU   1661.30s WALL (      12 calls)
     v_of_rho     :      5.89s CPU     10.50s WALL (      12 calls)
     mix_rho      :      0.98s CPU      1.75s WALL (      12 calls)

     Called by c_bands:
     init_us_2    :     72.81s CPU    126.13s WALL (     729 calls)
     cegterg      :   8112.41s CPU  14037.44s WALL (     324 calls)

     Called by *egterg:
     cdiaghg      :    101.20s CPU    174.09s WALL (    1336 calls)
     h_psi        :   6188.12s CPU  10750.79s WALL (    1390 calls)
     g_psi        :     28.30s CPU     47.93s WALL (    1039 calls)

     Called by h_psi:
     h_psi:calbec :    835.58s CPU   1439.32s WALL (    1390 calls)
     vloc_psi     :   4521.47s CPU   7834.98s WALL (    1390 calls)
     add_vuspsi   :    812.62s CPU   1399.56s WALL (    1390 calls)

     General routines
     calbec       :    969.65s CPU   1652.02s WALL (    1525 calls)
     fft          :      4.03s CPU      7.10s WALL (     145 calls)
     ffts         :      0.37s CPU      0.56s WALL (      12 calls)
     fftw         :   4782.16s CPU   8285.69s WALL (  328732 calls)

     Parallel routines
     fft_scatt_xy :    529.84s CPU    880.23s WALL (  328889 calls)
     fft_scatt_yz :    942.60s CPU   1549.02s WALL (  328889 calls)

     PWSCF        :      3h 5m CPU      5h21m WALL


   This run was terminated on:  19: 3:15  25Jul2026            

=------------------------------------------------------------------------------=
   JOB DONE.
=------------------------------------------------------------------------------=
